X,Y,u_x,u_y,,,,,,X1,Y1,sigma_xx,sigma_yy,sigma_xy,Status
0,0,0,0,,,,,,0.014573264,2.843195154,0.103825111,-2.853590784,-0.005492365,Elastic
0,0.428571429,0,-0.000319927,,,,,,0.014573264,2.703416562,-1.123751104,-5.439571927,-0.008871863,Elastic
0,0.214285714,0,-0.000165589,,,,,,0.014573264,2.437400175,-3.338174461,-10.42140983,-0.011543043,Elastic
0,0.321428571,0,-0.000244175,,,,,,0.014573264,2.297621583,-4.484347725,-13.04764883,-0.01125403,Elastic
0,0.107142857,0,-8.42E-05,,,,,,0.015303329,1.144482634,-17.00193318,-34.41428571,-0.002103598,Failure
0,3,0,-0.00122827,,,,,,0.015303329,1.004704042,-18.59476226,-36.93172418,-0.001100013,Failure
0,0.428571429,0,-0.000319927,,,,,,0.017300066,2.597255628,-2.01998563,-7.421551633,-0.012476393,Elastic
0,3,0,-0.00122827,,,,,,0.017300066,2.944712609,1.042969847,-0.999283411,-0.002533353,Elastic
0,2.571428571,0,-0.001202725,,,,,,0.017300066,2.195722348,-5.329733966,-14.95815535,-0.012575168,Elastic
0,2.785714286,0,-0.001221795,,,,,,0.017300066,2.54317933,-2.468713897,-8.435008867,-0.013123041,Elastic
0,2.892857143,0,-0.001226595,,,,,,0.018166733,1.248913987,-15.80552089,-32.52337313,-0.005642947,Failure
0,2.678571429,0,-0.001213845,,,,,,0.018166733,0.901457006,-19.76618598,-38.78313867,0.000121887,Failure
0,0.428571429,0,-0.000319927,,,,,,0.019727876,1.570140046,-12.08906205,-26.64956751,-0.008741228,Failure
0,0.428571429,0,-0.000319927,,,,,,0.019727876,1.430361454,-13.71290829,-29.21603399,-0.006538317,Failure
0,0.857142857,0,-0.000594123,,,,,,0.021981693,0.721558783,-21.79553982,-41.99049473,0.00348292,Failure
0,0.642857143,0,-0.000462838,,,,,,0.021981693,0.581780191,-23.36119383,-44.46497872,0.006908456,Failure
0,0.75,0,-0.000529947,,,,,,0.023419157,1.674026159,-10.87717374,-24.73418468,-0.012367227,Failure
0,0.535714286,0,-0.000392823,,,,,,0.023419157,1.326569178,-14.91198161,-31.11114449,-0.008172816,Failure
0,1.285714286,0,-0.000820971,,,,,,0.024134242,2.004415309,-6.987720434,-18.56271576,-0.012736653,Elastic
0,0.857142857,0,-0.000594123,,,,,,0.024134242,1.864636717,-8.633215044,-21.18765514,-0.010171365,Failure
0,1.071428571,0,-0.000713572,,,,,,0.024801023,0.272786785,-26.78994189,-49.88403619,0.014537288,Failure
0,1.178571429,0,-0.00076879,,,,,,0.024801023,0.133008193,-28.32496016,-52.31009434,0.017906527,Failure
0,0.964285714,0,-0.00065534,,,,,,0.026094685,0.479589873,-24.499926,-46.26471888,0.009885202,Failure
0,1.285714286,0,-0.000820971,,,,,,0.026094685,0.827046854,-20.60722439,-40.11238437,0.002017206,Failure
0,2.571428571,0,-0.001202725,,,,,,0.028649998,2.109368666,-6.063966981,-16.5749126,-0.019279703,Elastic
0,2.142857143,0,-0.001126318,,,,,,0.028649998,1.761911684,-9.842715984,-23.09918123,-0.021486234,Failure
0,2.357142857,0,-0.00117092,,,,,,0.02944154,0.027038149,-29.48135174,-54.13772268,0.024428973,Failure
0,2.464285714,0,-0.00118842,,,,,,0.02944154,0.37449513,-25.66636056,-48.10823669,0.014089533,Failure
0,2.25,0,-0.001150219,,,,,,0.04158589,1.289768879,-15.33580968,-31.7809872,-0.011470871,Failure
0,2.142857143,0,-0.001126318,,,,,,0.044261418,0.871361003,-20.10601194,-39.32022724,0.00152774,Failure
0,2.142857143,0,-0.001126318,,,,,,0.045950064,2.162233871,-5.609090142,-15.58321777,-0.032254566,Elastic
0,1.714285714,0,-0.000998822,,,,,,0.047420121,2.971750758,1.298815728,-0.509594589,-0.00364717,Elastic
0,1.928571429,0,-0.001068929,,,,,,0.052069155,1.721652129,-10.32049364,-23.85424731,-0.027373197,Failure
0,2.035714286,0,-0.001099219,,,,,,0.066654625,0.451563229,-24.81035905,-46.75527681,0.027290318,Failure
0,1.821428571,0,-0.001035459,,,,,,0.068358607,2.673480298,-1.381607026,-5.997259054,-0.044151217,Elastic
0,1.714285714,0,-0.000998822,,,,,,0.068358607,2.781540197,-0.449547459,-3.990246095,-0.033538043,Elastic
0,1.285714286,0,-0.000820971,,,,,,0.068358607,2.351746045,-4.039193059,-12.03104333,-0.053841253,Elastic
0,1.5,0,-0.000916116,,,,,,0.068358607,2.459805945,-3.154972655,-10.0004978,-0.053949186,Elastic
0,1.607142857,0,-0.000959035,,,,,,0.070001479,0.400544785,-25.37588185,-47.64904366,0.03210794,Failure
0,1.392857143,0,-0.000870087,,,,,,0.071783111,1.140303445,-17.04771774,-34.48662765,-0.011738871,Failure
0,1.714285714,0,-0.000998822,,,,,,0.071783111,1.032243546,-18.2799459,-36.434157,-0.006335288,Failure
0,0.857142857,0,-0.000594123,,,,,,0.085103848,2.588247319,-2.097710897,-7.590275504,-0.0619858,Elastic
0.068554193,2.888058,2.3503E-07,-0.001226436,,,,,,0.085103848,2.838257654,0.052285044,-2.944407313,-0.032878802,Elastic
0.068554193,2.888058,2.3503E-07,-0.001226436,,,,,,0.085103848,2.292684084,-4.523581437,-13.14009565,-0.06535385,Elastic
0.068554193,2.566629429,5.11876E-07,-0.001202144,,,,,,0.085103848,2.542694419,-2.474646591,-8.444116642,-0.064557905,Elastic
0.068554193,2.780915143,3.10112E-07,-0.001221497,,,,,,0.089367224,1.214915102,-16.19266891,-33.13519859,-0.019849564,Failure
0.068554193,2.673772286,4.03818E-07,-0.001213406,,,,,,0.089367224,0.964904766,-19.04440414,-37.64237397,-0.003142189,Failure
0.068554193,2.566629429,5.11876E-07,-0.001202144,,,,,,0.092537273,1.555206141,-12.26046913,-26.92016396,-0.042832116,Failure
0.068554193,2.245200858,8.81216E-07,-0.00114921,,,,,,0.092537273,1.447146242,-13.51661232,-28.90557895,-0.036211006,Failure
0.068554193,2.459486572,6.30102E-07,-0.001187697,,,,,,0.103109221,0.73822303,-21.60365649,-41.68719595,0.015817307,Failure
0.068554193,2.352343715,7.54492E-07,-0.001170054,,,,,,0.103109221,0.630163131,-22.8157987,-43.60291302,0.026050553,Failure
0.068554193,2.245200858,8.81216E-07,-0.00114921,,,,,,0.1090951,1.249330527,-15.79714132,-32.51002233,-0.026926635,Failure
0.071988496,0.925601684,1.57691E-06,-0.000633571,,,,,,0.10923809,2.264473993,-4.754946567,-13.66905255,-0.082346552,Elastic
0.071988496,1.247030256,1.69374E-06,-0.000802473,,,,,,0.11047644,2.861034104,0.253004737,-2.52612477,-0.037549345,Elastic
0.071988496,1.139887399,1.67945E-06,-0.000749193,,,,,,0.111348917,0.939552435,-19.33035811,-38.09432017,-0.001551383,Failure
0.071988496,1.032744541,1.64072E-06,-0.000692883,,,,,,0.113206155,2.010532466,-6.925724416,-18.45222787,-0.065764892,Elastic
0.071988496,1.247030256,1.69374E-06,-0.000802473,,,,,,0.113206155,1.902472567,-8.180089506,-20.47071191,-0.062023419,Failure
0.071988496,0.925601684,1.57691E-06,-0.000633571,,,,,,0.115205361,1.626469481,-11.42850303,-25.60498507,-0.05713549,Failure
0.092802039,1.340465271,2.17516E-06,-0.000846438,,,,,,0.115205361,1.376459145,-14.33374613,-30.19701153,-0.03941629,Failure
0.092802039,1.340465271,2.17516E-06,-0.000846438,,,,,,0.116333814,0.214897076,-27.42030138,-50.87972111,0.074508288,Failure
0.092802039,1.661893842,1.98481E-06,-0.000979743,,,,,,0.116333814,0.106837177,-28.60452127,-52.75116061,0.08703846,Failure
0.092802039,1.554750985,2.07391E-06,-0.000938422,,,,,,0.128367032,0.81932397,-20.6878654,-40.23982072,0.010963011,Failure
0.092802039,1.447608128,2.1381E-06,-0.00089398,,,,,,0.128367032,0.569313635,-23.49342385,-44.67378286,0.039375373,Failure
0.092802039,1.661893842,1.98481E-06,-0.000979743,,,,,,0.13050869,1.345459236,-14.68997569,-30.75999757,-0.041844518,Failure
0.103404235,0.523597065,1.5951E-06,-0.000384707,,,,,,0.13749956,2.668640079,-1.430778641,-6.087609111,-0.089592759,Elastic
0.103404235,0.523597065,1.5951E-06,-0.000384707,,,,,,0.13749956,2.454965726,-3.195878163,-10.09157182,-0.108664795,Elastic
0.103404235,0.845025636,2.17276E-06,-0.000586994,,,,,,0.139339604,1.66658874,-10.95703066,-24.85948483,-0.071193742,Failure
0.103404235,0.630739922,1.824E-06,-0.000455048,,,,,,0.140937327,2.088349731,-6.223412789,-16.95109747,-0.079465331,Elastic
0.103404235,0.737882779,2.01673E-06,-0.000522485,,,,,,0.140937327,1.838339395,-8.941730331,-21.67411648,-0.075748259,Failure
0.103404235,0.845025636,2.17276E-06,-0.000586994,,,,,,0.14367036,0.856653411,-20.26491893,-39.57136916,0.007772541,Failure
0.113530058,2.117296718,1.70683E-06,-0.001120124,,,,,,0.14438776,1.101288317,-17.48813622,-35.18266369,-0.019929085,Failure
0.113530058,1.795868146,2.25426E-06,-0.001026984,,,,,,0.144831144,0.02277645,-29.51735941,-54.19316494,0.120945433,Failure
0.113530058,2.117296718,1.70683E-06,-0.001120124,,,,,,0.144831144,0.272786785,-26.77952035,-49.8667894,0.084568231,Failure
0.113530058,2.010153861,1.90479E-06,-0.001092262,,,,,,0.155510591,2.132882428,-5.849807763,-16.12999266,-0.102046016,Elastic
0.113530058,1.903011003,2.0888E-06,-0.001061211,,,,,,0.160665203,1.804425471,-9.339192737,-22.30191202,-0.088228859,Failure
0.113530058,1.795868146,2.25426E-06,-0.001026984,,,,,,0.162533994,0.545704495,-23.75201453,-45.08232746,0.053188862,Failure
0.116666667,0,0,0,,,,,,0.162742214,2.976203347,1.309362591,-0.429096807,-0.010554717,Elastic
0.116666667,0.321428571,1.20531E-06,-0.000244161,,,,,,0.164320384,1.301735401,-15.19008492,-31.55035306,-0.046388086,Failure
0.116666667,0.107142857,4.33706E-07,-8.42E-05,,,,,,0.174539662,2.581986357,-2.158260032,-7.70766204,-0.127927553,Elastic
0.116666667,0.214285714,8.36494E-07,-0.000165579,,,,,,0.174539662,2.6922181,-1.238554902,-5.648231291,-0.10875492,Elastic
0.116666667,0.321428571,1.20531E-06,-0.000244161,,,,,,0.174539662,2.426201713,-3.430745071,-10.63205972,-0.138530244,Elastic
0.119355389,3,3.12633E-07,-0.001228233,,,,,,0.174539662,2.536433457,-2.532405641,-8.561647165,-0.132987455,Elastic
0.137108387,2.776116001,6.24796E-07,-0.001221174,,,,,,0.174892332,0.913323719,-19.62042503,-38.55276571,0.001687024,Failure
0.137108387,2.776116001,6.24796E-07,-0.001221174,,,,,,0.178998106,0.294730545,-26.53208416,-49.47537569,0.100878998,Failure
0.137108387,2.561830287,1.03229E-06,-0.001201542,,,,,,0.181564762,2.219421368,-5.121936811,-14.51318584,-0.131053612,Elastic
0.137108387,2.668973144,8.14391E-07,-0.001212944,,,,,,0.183283429,1.164447909,-16.76284679,-34.03624905,-0.033287377,Failure
0.137108387,2.561830287,1.03229E-06,-0.001201542,,,,,,0.183283429,1.054216165,-18.02031707,-36.02377366,-0.018735062,Failure
0.137108387,2.347544572,1.5199E-06,-0.001169167,,,,,,0.18613361,1.502365843,-12.86983673,-27.88252459,-0.07841635,Failure
0.137108387,2.454687429,1.27013E-06,-0.001186952,,,,,,0.187373473,2.888377373,0.477071605,-2.025511376,-0.052656957,Elastic
0.137108387,2.347544572,1.5199E-06,-0.001169167,,,,,,0.198673904,2.397991623,-3.659397152,-11.16207783,-0.157659504,Elastic
0.143976991,0.994060511,3.24428E-06,-0.000671784,,,,,,0.199912254,2.71499455,-1.051639973,-5.224489904,-0.118587488,Elastic
0.143976991,1.208346226,3.38583E-06,-0.000783557,,,,,,0.203011305,1.198863334,-16.36649457,-33.40971935,-0.042041646,Failure
0.143976991,1.101203368,3.33977E-06,-0.00072918,,,,,,0.205265122,1.028863834,-18.30556704,-36.47461697,-0.016674125,Failure
0.143976991,1.208346226,3.38583E-06,-0.000783557,,,,,,0.205743428,1.743392993,-10.06893699,-23.45451747,-0.109038789,Failure
0.143976991,0.994060511,3.24428E-06,-0.000671784,,,,,,0.207398499,0.726002097,-21.72692358,-41.88188967,0.035337592,Failure
0.160725047,0.424654366,2.10411E-06,-0.000317175,,,,,,0.221507342,0.443909318,-24.87343925,-46.85401748,0.094304416,Failure
0.160725047,0.424654366,2.10411E-06,-0.000317175,,,,,,0.224326673,0.400932299,-25.3493358,-47.6059394,0.104584206,Failure
0.164790535,1.301781241,3.87798E-06,-0.000828479,,,,,,0.227707923,1.984753267,-7.207955484,-18.93135746,-0.130037257,Failure
0.175392731,0.913484463,3.8265E-06,-0.000626627,,,,,,0.233999038,0.106837177,-28.58325466,-52.71506205,0.175586798,Failure
0.182084252,2.219640432,2.42135E-06,-0.001143721,,,,,,0.236274919,1.558119034,-12.2183752,-26.85200823,-0.10515923,Failure
0.185604078,1.395216256,4.32594E-06,-0.000871068,,,,,,0.236274919,1.447887291,-13.49596588,-28.8718069,-0.090041003,Failure
0.185604078,1.395216256,4.32594E-06,-0.000871068,,,,,,0.236925033,1.262720272,-15.62971424,-32.24496693,-0.059609425,Failure
0.185604078,1.60950197,4.06842E-06,-0.000959882,,,,,,0.239616641,2.581692336,-2.17061666,-7.71328677,-0.175608706,Elastic
0.185604078,1.502359113,4.22328E-06,-0.00091703,,,,,,0.239616641,2.527616038,-2.611094814,-8.727016051,-0.183482903,Elastic
0.185604078,1.60950197,4.06842E-06,-0.000959882,,,,,,0.247496982,0.982368489,-18.82657403,-37.29808464,-0.010043874,Failure
0.187909582,2.888058,6.32732E-07,-0.001226366,,,,,,0.250705714,2.322641049,-4.267714207,-12.57715125,-0.194515769,Elastic
0.20566258,2.664174001,1.22956E-06,-0.001212457,,,,,,0.251578248,1.416887382,-13.85261696,-29.43548623,-0.090690067,Failure
0.20566258,2.664174001,1.22956E-06,-0.001212457,,,,,,0.251620517,1.123464315,-17.22143108,-34.76099161,-0.037535556,Failure
0.20566258,2.557031144,1.55975E-06,-0.001200916,,,,,,0.256514425,2.775477255,-0.553802873,-4.102618934,-0.128614483,Elastic
0.20566258,2.557031144,1.55975E-06,-0.001200916,,,,,,0.257916721,1.356955003,-14.54282832,-30.52663447,-0.081808965,Failure
0.20566258,2.449888287,1.91921E-06,-0.001186186,,,,,,0.260409162,1.598238294,-11.75118925,-26.11292412,-0.12156237,Failure
0.20566258,2.449888287,1.91921E-06,-0.001186186,,,,,,0.263268217,0.693284098,-22.08239793,-42.4435046,0.053726547,Failure
0.206332097,1.743476274,4.23582E-06,-0.001009042,,,,,,0.263268217,0.803515841,-20.84453793,-40.48734903,0.028366106,Failure
0.206808471,0.6186227,3.60729E-06,-0.000447186,,,,,,0.263375717,0.519420068,-24.02462135,-45.5124448,0.094619623,Failure
0.206808471,0.6186227,3.60729E-06,-0.000447186,,,,,,0.268266639,2.494127561,-2.885560018,-9.356044913,-0.209111036,Elastic
0.206808471,0.832908415,4.32252E-06,-0.000579787,,,,,,0.269736697,2.608730485,-1.955464296,-7.207232074,-0.191890256,Elastic
0.206808471,0.725765558,4.00164E-06,-0.000514949,,,,,,0.275039673,1.164319207,-16.75107332,-34.0174529,-0.048664051,Failure
0.206808471,0.832908415,4.32252E-06,-0.000579787,,,,,,0.27660031,0.317828365,-26.25543983,-49.03670566,0.151015999,Failure
0.215965487,1.062519338,4.97437E-06,-0.000708753,,,,,,0.277715202,1.093368312,-17.5602059,-35.29645575,-0.034253397,Failure
0.215965487,1.169662196,5.07004E-06,-0.000764222,,,,,,0.278571546,0.840845282,-20.42071344,-39.81754234,0.022160477,Failure
0.215965487,1.169662196,5.07004E-06,-0.000764222,,,,,,0.27918161,0.901102786,-19.74030127,-38.74221956,0.008048436,Failure
0.215965487,1.062519338,4.97437E-06,-0.000708753,,,,,,0.289048663,2.055003595,-6.477051043,-17.5788295,-0.161830677,Elastic
0.227060116,2.091736293,3.51401E-06,-0.001113706,,,,,,0.289048663,1.944771852,-7.680341329,-19.6761607,-0.160142428,Failure
0.227060116,1.877450578,4.26777E-06,-0.001053269,,,,,,0.29606653,2.19364217,-5.313768308,-14.99190648,-0.206821119,Elastic
0.227060116,2.091736293,3.51401E-06,-0.001113706,,,,,,0.2970345,0.133008193,-28.27999498,-52.23405137,0.215680134,Failure
0.227060116,1.984593435,3.90612E-06,-0.001085081,,,,,,0.2970345,0.02277645,-29.4823869,-54.13293405,0.248949489,Failure
0.227060116,1.877450578,4.26777E-06,-0.001053269,,,,,,0.29743518,0.669674958,-22.33902495,-42.84889037,0.067572645,Failure
0.233333333,0,0,0,,,,,,0.298488791,1.255192768,-15.70691732,-32.36670899,-0.073109,Failure
0.233333333,0.214285714,1.67791E-06,-0.000165548,,,,,,0.299339765,1.690552696,-10.67178122,-24.40543407,-0.148801575,Failure
0.233333333,0.107142857,8.70067E-07,-8.42E-05,,,,,,0.303621927,2.099536292,-6.096376432,-16.74419579,-0.185403284,Elastic
0.233333333,0.214285714,1.67791E-06,-0.000165548,,,,,,0.307750431,2.888377373,0.410435545,-2.025648109,-0.086608181,Elastic
0.23677903,1.263097211,5.58797E-06,-0.0008101,,,,,,0.308776539,1.910857927,-8.080004383,-20.3071274,-0.171545676,Failure
0.238710778,3,6.00883E-07,-0.00122812,,,,,,0.311650461,1.016397278,-18.42765506,-36.66756449,-0.01878304,Failure
0.247381227,0.98194329,5.56399E-06,-0.000665025,,,,,,0.313296386,2.52035863,-2.679316764,-8.863196826,-0.240800022,Elastic
0.250638445,2.321984147,2.88756E-06,-0.001164381,,,,,,0.314766443,2.580885257,-2.19229644,-7.728346825,-0.230866345,Elastic
0.256463776,2.776116001,1.14942E-06,-0.001221076,,,,,,0.315476989,2.371694301,-3.867150202,-11.65512203,-0.248767971,Elastic
0.257592574,1.356532226,6.0475E-06,-0.000853651,,,,,,0.316359396,1.15882163,-16.80608036,-34.10430742,-0.054127429,Failure
0.264129283,0.519680002,4.06697E-06,-0.000381995,,,,,,0.318453277,2.976203347,1.208969197,-0.42914583,-0.020784378,Elastic
0.274216773,2.552232002,2.09291E-06,-0.001200266,,,,,,0.319034925,1.114908884,-17.30604943,-34.89465823,-0.043565245,Failure
0.274216773,2.552232002,2.09291E-06,-0.001200266,,,,,,0.320245196,1.825673694,-9.083594322,-21.89322913,-0.176349724,Failure
0.274216773,2.552232002,2.09291E-06,-0.001200266,,,,,,0.322708612,2.71499455,-1.095475137,-5.224604841,-0.191467568,Elastic
0.274216773,2.552232002,2.09291E-06,-0.001200266,,,,,,0.324369843,1.504122889,-12.83410358,-27.82412207,-0.131660544,Failure
0.274216773,2.552232002,2.09291E-06,-0.001200266,,,,,,0.325642143,1.377088106,-14.3009526,-30.14359682,-0.106225199,Failure
0.274216773,2.552232002,2.09291E-06,-0.001200266,,,,,,0.331201462,0.154951953,-28.02891629,-51.83631234,0.233802861,Failure
0.277391714,0.317511509,2.84757E-06,-0.000241272,,,,,,0.333295781,1.250561708,-15.7527854,-32.43906047,-0.07920192,Failure
0.278406117,1.449967241,6.43619E-06,-0.000894859,,,,,,0.342536576,1.467322591,-13.25750486,-28.49342519,-0.129927235,Failure
0.278406117,1.449967241,6.43619E-06,-0.000894859,,,,,,0.346457452,1.034542668,-18.21378734,-36.32951691,-0.024191976,Failure
0.278406117,1.557110098,6.24047E-06,-0.000939236,,,,,,0.352635441,0.91127775,-19.60699686,-38.53153028,0.009701579,Failure
0.278406117,1.557110098,6.24047E-06,-0.000939236,,,,,,0.353019841,1.551748859,-12.27869052,-26.94538964,-0.148811987,Failure
0.278796966,0.901367242,6.06441E-06,-0.000619604,,,,,,0.353409236,2.393790882,-3.690063861,-11.23969692,-0.279277451,Elastic
0.287953982,1.130978165,6.73993E-06,-0.000744471,,,,,,0.360449134,1.372457047,-14.34904207,-30.2193063,-0.114535516,Failure
0.287953982,1.130978165,6.73993E-06,-0.000744471,,,,,,0.360640859,2.691538231,-1.306812581,-5.66113276,-0.225024004,Elastic
0.287953982,1.130978165,6.73993E-06,-0.000744471,,,,,,0.361427571,0.787751532,-20.99635146,-40.72709191,0.048006832,Failure
0.287953982,1.130978165,6.73993E-06,-0.000744471,,,,,,0.367664995,0.615259034,-22.92635636,-43.77640258,0.103630486,Failure
0.287953982,1.130978165,6.73993E-06,-0.000744471,,,,,,0.374152511,2.204830536,-5.201906168,-14.78142863,-0.262222912,Elastic
0.29561431,2.194080007,4.06442E-06,-0.001138006,,,,,,0.377212246,1.682172715,-10.76394552,-24.5490965,-0.181441001,Failure
0.299134136,1.691084402,6.33354E-06,-0.000990311,,,,,,0.379594304,0.83206568,-20.49194781,-39.9300203,0.035997504,Failure
0.307264971,2.888058,9.98342E-07,-0.001226225,,,,,,0.383856299,1.461825014,-13.31623542,-28.58571138,-0.141749284,Failure
0.308767526,1.22441318,7.29906E-06,-0.000791299,,,,,,0.387442432,0.92942314,-19.39266813,-38.19279268,0.007491513,Failure
0.308767526,1.22441318,7.29906E-06,-0.000791299,,,,,,0.388983861,2.861034104,0.106988109,-2.526404757,-0.132604114,Elastic
0.310212706,0.713648336,5.96104E-06,-0.000507337,,,,,,0.394265533,0.209768466,-27.40540642,-50.84942317,0.258730537,Failure
0.310212706,0.713648336,5.96104E-06,-0.000507337,,,,,,0.396820237,2.026477949,-6.719714318,-18.1524078,-0.220949525,Failure
0.310212706,0.820791194,6.45618E-06,-0.000572501,,,,,,0.4001937,1.240997425,-15.84825074,-32.5897081,-0.088371807,Failure
0.310212706,0.820791194,6.45618E-06,-0.000572501,,,,,,0.401987511,0.759724888,-21.29739751,-41.20265642,0.064229898,Failure
0.319192638,2.424327862,3.10828E-06,-0.0011821,,,,,,0.404254024,1.856955618,-8.714233384,-21.30525868,-0.226014188,Failure
0.319192638,2.424327862,3.10828E-06,-0.0011821,,,,,,0.405399353,1.548203965,-12.31365623,-26.9995384,-0.168863701,Failure
0.319369722,1.050402117,7.3576E-06,-0.000702179,,,,,,0.406274543,1.171819221,-16.63635504,-33.83578226,-0.06900287,Failure
0.319369722,1.050402117,7.3576E-06,-0.000702179,,,,,,0.407783586,0.027038149,-29.39573514,-53.99022096,0.341707642,Failure
0.319862155,1.825058706,6.25687E-06,-0.001036467,,,,,,0.40852836,1.134827914,-17.05702628,-34.50086955,-0.057581752,Failure
0.321450094,0.420737304,4.19798E-06,-0.000314353,,,,,,0.410765648,1.067482819,-17.82207023,-35.71030716,-0.036407625,Failure
0.321450094,0.420737304,4.19798E-06,-0.000314353,,,,,,0.412084758,2.226927116,-5.009963319,-14.36675195,-0.295376834,Elastic
0.325017969,2.664174001,1.91824E-06,-0.001212335,,,,,,0.414120303,2.079343155,-6.223960058,-17.11743522,-0.235681546,Elastic
0.325017969,2.664174001,1.91824E-06,-0.001212335,,,,,,0.418069078,1.495080418,-12.92437544,-27.96536898,-0.160336358,Failure
0.329581069,1.317848195,7.78508E-06,-0.000835808,,,,,,0.42018778,2.527029567,-2.64420085,-8.736833647,-0.3209177,Elastic
0.329581069,1.317848195,7.78508E-06,-0.000835808,,,,,,0.420239394,1.986218394,-7.193987034,-18.90087366,-0.234617941,Failure
0.340590175,2.066175867,5.42568E-06,-0.001107059,,,,,,0.420914027,0.853606253,-20.23731135,-39.52757619,0.035411338,Failure
0.340590175,1.95903301,6.00894E-06,-0.00107767,,,,,,0.421185388,1.335232156,-14.76432606,-30.87551404,-0.119160444,Failure
0.340590175,2.066175867,5.42568E-06,-0.001107059,,,,,,0.421335804,1.67918656,-10.7905211,-24.58951569,-0.203524851,Failure
0.340590175,1.95903301,6.00894E-06,-0.00107767,,,,,,0.42142613,2.578016107,-2.243377906,-7.781465453,-0.30943993,Elastic
0.35,0,0,0,,,,,,0.425476419,0.515469479,-24.01705897,-45.49849836,0.159851804,Failure
0.35,0.107142857,1.31159E-06,-8.41E-05,,,,,,0.426916109,2.837577785,-0.126866467,-2.957133782,-0.165930338,Elastic
0.35,0.107142857,1.31159E-06,-8.41E-05,,,,,,0.428633979,2.426289172,-3.433394287,-10.62853426,-0.338545875,Elastic
0.350394613,1.41128321,8.18563E-06,-0.000877982,,,,,,0.43118927,0.438799118,-24.86557258,-46.8383073,0.191824561,Failure
0.350394613,1.41128321,8.18563E-06,-0.000877982,,,,,,0.4340086,0.395822099,-25.34019429,-47.58763608,0.210179493,Failure
0.350785462,0.969826069,7.88347E-06,-0.000658184,,,,,,0.43444269,2.665451026,-1.553283665,-6.147052547,-0.284306575,Elastic
0.350785462,0.969826069,7.88347E-06,-0.000658184,,,,,,0.434481511,2.971750758,1.050800281,-0.509542414,-0.033646344,Elastic
0.358066167,3,8.40263E-07,-0.001227924,,,,,,0.438701012,0.313877777,-26.24280096,-49.01245845,0.245953016,Failure
0.364168503,2.296423722,4.35616E-06,-0.001159366,,,,,,0.442450277,0.986217115,-18.73312836,-37.1503986,-0.008825865,Failure
0.364168503,2.296423722,4.35616E-06,-0.001159366,,,,,,0.448343526,0.053087804,-29.09482029,-53.5128181,0.364804818,Failure
0.367533518,0.614705638,6.4203E-06,-0.000444502,,,,,,0.448377582,1.853969463,-8.745209778,-21.35293748,-0.239588284,Failure
0.371208156,1.504718225,8.48994E-06,-0.000917804,,,,,,0.454841485,1.389843269,-14.12936998,-29.87091866,-0.14259078,Failure
0.371208156,1.504718225,8.48994E-06,-0.000917804,,,,,,0.458510097,0.784665652,-20.99809983,-40.72955158,0.068016081,Failure
0.371208156,1.504718225,8.48994E-06,-0.000917804,,,,,,0.459150049,2.105574224,-5.982019,-16.63276763,-0.278418453,Elastic
0.371208156,1.504718225,8.48994E-06,-0.000917804,,,,,,0.459269881,0.834232868,-20.44037462,-39.8483548,0.049594672,Failure
0.371208156,1.504718225,8.48994E-06,-0.000917804,,,,,,0.462793866,0.665644968,-22.3283734,-42.83097984,0.114513791,Failure
0.371208156,1.504718225,8.48994E-06,-0.000917804,,,,,,0.472618906,1.9826735,-7.240875474,-18.97184262,-0.263503949,Failure
0.375819165,2.776116001,1.63895E-06,-0.001220911,,,,,,0.473994795,2.297290293,-4.435161375,-13.04533464,-0.358996299,Elastic
0.375819165,2.776116001,1.63895E-06,-0.001220911,,,,,,0.479511257,2.94390553,0.745920702,-1.01405338,-0.07185136,Elastic
0.379701295,1.147877195,8.9418E-06,-0.000752989,,,,,,0.481834783,0.946809362,-19.16483255,-37.8327007,0.008330808,Failure
0.379701295,1.147877195,8.9418E-06,-0.000752989,,,,,,0.483661714,1.417857023,-13.80107438,-29.35121815,-0.158488417,Failure
0.382201202,0.889250021,8.29766E-06,-0.000612499,,,,,,0.485678696,2.778351143,-0.671712292,-4.049349202,-0.241199315,Elastic
0.382201202,0.889250021,8.29766E-06,-0.000612499,,,,,,0.492726283,1.258041094,-15.62919076,-32.24292025,-0.106788289,Failure
0.38409993,2.553832966,2.89856E-06,-0.00120033,,,,,,0.496560149,0.150921964,-28.00453017,-51.7897808,0.358162976,Failure
0.38409993,2.553832966,2.89856E-06,-0.00120033,,,,,,0.503298231,1.084526488,-17.59925671,-35.35806822,-0.043687978,Failure
0.391936175,1.63869253,8.53874E-06,-0.000970787,,,,,,0.504269881,2.080417205,-6.171074324,-17.08271435,-0.292362194,Elastic
0.391936175,1.63869253,8.53874E-06,-0.000970787,,,,,,0.506309523,1.676545581,-10.80911624,-24.61610233,-0.237591582,Failure
0.39405838,0.210368652,2.80561E-06,-0.000162546,,,,,,0.507226606,0.026049655,-29.36034951,-53.92729931,0.428093126,Failure
0.400514838,1.24131221,9.50874E-06,-0.000799391,,,,,,0.510407476,0.686654618,-22.07422103,-42.42909571,0.120843906,Failure
0.409144368,2.168519582,5.8146E-06,-0.001132057,,,,,,0.511619647,2.023603092,-6.752469599,-18.19683675,-0.285402166,Failure
0.409144368,2.168519582,5.8146E-06,-0.001132057,,,,,,0.514145064,0.930489571,-19.33600306,-38.10319226,0.019065936,Failure
0.411117035,1.067301147,9.55001E-06,-0.000711043,,,,,,0.518078584,1.580799973,-11.91685447,-26.36894219,-0.217796441,Failure
0.412664194,1.772666834,8.37929E-06,-0.001018866,,,,,,0.520331573,2.972154771,0.944981334,-0.502273237,-0.03980152,Elastic
0.412664194,1.772666834,8.37929E-06,-0.001018866,,,,,,0.525135803,2.228574236,-4.958172829,-14.32672077,-0.374389484,Elastic
0.413616942,0.808673972,8.5803E-06,-0.000565136,,,,,,0.525968104,1.193865698,-16.34966795,-33.38226342,-0.086340029,Failure
0.413616942,0.808673972,8.5803E-06,-0.000565136,,,,,,0.527214955,1.811666579,-9.234771865,-22.12365818,-0.271653666,Failure
0.413616942,0.808673972,8.5803E-06,-0.000565136,,,,,,0.528221921,1.156874391,-16.7696398,-34.04637272,-0.072177729,Failure
0.413616942,0.808673972,8.5803E-06,-0.000565136,,,,,,0.528751333,1.536049653,-12.43014754,-27.18117148,-0.206927604,Failure
0.413616942,0.808673972,8.5803E-06,-0.000565136,,,,,,0.537574608,0.536564305,-23.73349797,-45.04865654,0.198048482,Failure
0.413616942,0.808673972,8.5803E-06,-0.000565136,,,,,,0.539457633,2.427903839,-3.422550298,-10.59405322,-0.423585551,Elastic
0.421328382,1.334747225,9.97796E-06,-0.00084347,,,,,,0.539967153,2.839224905,-0.221098369,-2.926708223,-0.208080752,Elastic
0.42485433,0.51576294,6.55097E-06,-0.000379199,,,,,,0.545266344,2.667065693,-1.601253123,-6.115730032,-0.354929289,Elastic
0.42662036,2.888058,1.31146E-06,-0.001226006,,,,,,0.546162195,0.128145514,-28.22827992,-52.13937321,0.40793947,Failure
0.42662036,2.888058,1.31146E-06,-0.001226006,,,,,,0.547381693,1.289994407,-15.24732828,-31.6386885,-0.1254156,Failure
0.429075795,2.425928826,4.15135E-06,-0.001182206,,,,,,0.554038721,0.285590356,-26.49880764,-49.41155428,0.33149078,Failure
0.433392214,1.906641138,8.01226E-06,-0.001062005,,,,,,0.556372035,1.466635881,-13.22213976,-28.43419332,-0.191145409,Failure
0.433392214,1.906641138,8.01226E-06,-0.001062005,,,,,,0.560543364,1.073975367,-17.69747434,-35.51336803,-0.037963917,Failure
0.434901126,2.665774966,2.51275E-06,-0.00121231,,,,,,0.563143937,2.207382416,-5.109841283,-14.71759345,-0.389540274,Elastic
0.438116761,0.313594447,4.4837E-06,-0.000238325,,,,,,0.563541368,2.529118186,-2.661255779,-8.693952745,-0.427866525,Elastic
0.442141925,1.42818224,1.03381E-05,-0.000885212,,,,,,0.564779718,2.580104726,-2.277094837,-7.739472359,-0.411890652,Elastic
0.442141925,1.42818224,1.03381E-05,-0.000885212,,,,,,0.566445962,1.893419606,-8.269027527,-20.59279928,-0.303574672,Failure
0.442532774,0.986725098,1.00514E-05,-0.000667392,,,,,,0.574353452,2.863021557,-0.063394055,-2.489690502,-0.193385097,Elastic
0.454120233,2.040615442,7.44757E-06,-0.001100174,,,,,,0.575485542,0.792365528,-20.86188852,-40.51379077,0.090954599,Failure
0.454120233,2.040615442,7.44757E-06,-0.001100174,,,,,,0.57612557,0.834120058,-20.39351551,-39.77394073,0.071522277,Failure
0.454120233,2.040615442,7.44757E-06,-0.001100174,,,,,,0.576201923,1.318008161,-14.91800534,-31.11756455,-0.139754399,Failure
0.454120233,2.040615442,7.44757E-06,-0.001100174,,,,,,0.585188218,0.557573955,-23.47637469,-44.64171869,0.208648064,Failure
0.454120233,2.040615442,7.44757E-06,-0.001100174,,,,,,0.587874995,0.438860464,-24.79069823,-46.71563871,0.271151824,Failure
0.454120233,2.040615442,7.44757E-06,-0.001100174,,,,,,0.591005489,0.713808707,-21.73325668,-41.88978432,0.133295743,Failure
0.454120233,2.040615442,7.44757E-06,-0.001100174,,,,,,0.59122185,0.38784202,-25.35226643,-47.60139427,0.30012434,Failure
0.466666667,0,0,0,,,,,,0.592853645,1.057655577,-17.86873424,-35.78413019,-0.028841892,Failure
0.466666667,0,0,0,,,,,,0.59400766,0.9096661,-19.53660288,-38.42007055,0.039768651,Failure
0.466666667,0,0,0,,,,,,0.599299484,1.927897958,-7.866715369,-19.95341517,-0.327069899,Failure
0.470937753,0.709731274,9.08936E-06,-0.000504672,,,,,,0.603640767,0.262813906,-26.72152843,-49.76004351,0.376701421,Failure
0.470937753,0.709731274,9.08936E-06,-0.000504672,,,,,,0.609813869,2.39752662,-3.648805689,-11.15836102,-0.475364812,Elastic
0.471448607,1.164776225,1.11768E-05,-0.000761391,,,,,,0.613889675,1.213624031,-16.09316844,-32.97651799,-0.098467596,Failure
0.471448607,1.164776225,1.11768E-05,-0.000761391,,,,,,0.616565204,1.169711285,-16.59029123,-33.76276191,-0.078741417,Failure
0.473948514,0.90614905,1.04256E-05,-0.00062205,,,,,,0.617045492,2.695273969,-1.433686192,-5.589104748,-0.379963809,Elastic
0.473948514,0.90614905,1.04256E-05,-0.00062205,,,,,,0.62086375,0.02194376,-29.34236279,-53.88850363,0.530855291,Failure
0.47405166,2.298024687,5.65465E-06,-0.001159511,,,,,,0.622051657,1.715218457,-10.34764534,-23.88132168,-0.289575936,Failure
0.477421556,3,1.00618E-06,-0.001227636,,,,,,0.626933162,0.10293129,-28.4571443,-52.49356135,0.487294762,Failure
0.477421556,3,1.00618E-06,-0.001227636,,,,,,0.627722621,2.976543681,0.818071067,-0.422956968,-0.040572045,Elastic
0.477421556,3,1.00618E-06,-0.001227636,,,,,,0.62791293,1.38944482,-14.08496805,-29.79907416,-0.17451775,Failure
0.482175141,0.416820242,6.30208E-06,-0.000311457,,,,,,0.634041791,2.103172723,-5.891872454,-16.63738394,-0.360999622,Elastic
0.482175141,0.416820242,6.30208E-06,-0.000311457,,,,,,0.640233102,2.055313538,-6.372796952,-17.58423317,-0.36655563,Failure
0.485702321,2.777716965,2.03491E-06,-0.001220788,,,,,,0.644397582,0.463801227,-24.48282692,-46.22788156,0.287749707,Failure
0.485968054,1.543062906,1.10417E-05,-0.00093327,,,,,,0.646974029,2.88997377,0.061912185,-1.996240309,-0.179848963,Elastic
0.485968054,1.543062906,1.10417E-05,-0.00093327,,,,,,0.647822003,2.3763348,-3.800550743,-11.55190579,-0.500852232,Elastic
0.49226215,1.25821124,1.17441E-05,-0.000807364,,,,,,0.648102454,1.246879435,-15.7021813,-32.35802154,-0.114473685,Failure
0.493983087,2.555433931,3.67512E-06,-0.001200333,,,,,,0.648816913,0.614019153,-22.81497108,-43.59640283,0.206342522,Failure
0.493983087,2.555433931,3.67512E-06,-0.001200333,,,,,,0.65010493,0.360803871,-25.61632106,-48.01502337,0.350498782,Failure
0.502864347,1.084200176,1.17848E-05,-0.000719789,,,,,,0.65143179,2.719070622,-1.281351072,-5.146159124,-0.380344943,Elastic
0.506696073,1.677037211,1.08995E-05,-0.000984847,,,,,,0.652279021,2.197886116,-5.135112203,-14.88143927,-0.437080337,Elastic
0.510725047,0.103225795,1.86466E-06,-8.11E-05,,,,,,0.654855614,1.007975472,-18.40147239,-36.62623287,0.00141605,Failure
0.510725047,0.103225795,1.86466E-06,-8.11E-05,,,,,,0.654921057,1.1503379,-16.7938051,-34.08463887,-0.068720778,Failure
0.513075694,1.351646255,1.21891E-05,-0.000851012,,,,,,0.667794369,1.630824451,-11.30484549,-25.39613595,-0.27659656,Failure
0.513075694,1.351646255,1.21891E-05,-0.000851012,,,,,,0.669639972,2.525550449,-2.717408661,-8.755745759,-0.506292011,Elastic
0.519027525,2.170120547,7.37626E-06,-0.001132234,,,,,,0.67111003,2.586077076,-2.279446554,-7.62346372,-0.483688444,Elastic
0.519027525,2.170120547,7.37626E-06,-0.001132234,,,,,,0.671368641,0.2070406,-27.29171476,-50.65390761,0.458341996,Failure
0.527424092,1.811011515,1.05037E-05,-0.00103151,,,,,,0.672114169,1.505308757,-12.74518754,-27.67752676,-0.228856525,Failure
0.528258565,0.610788576,9.27035E-06,-0.000441721,,,,,,0.678467117,1.586074131,-11.81638304,-26.20626304,-0.262511665,Failure
0.528258565,0.610788576,9.27035E-06,-0.000441721,,,,,,0.681320514,1.973393702,-7.328634468,-19.09464452,-0.377158746,Failure
0.534192219,0.812479979,1.11863E-05,-0.000567182,,,,,,0.689119968,1.768661181,-9.711505135,-22.87052163,-0.330241174,Failure
0.534192219,0.812479979,1.11863E-05,-0.000567182,,,,,,0.690720975,0.439049647,-24.72870422,-46.61361311,0.328190445,Failure
0.534280087,1.003624128,1.22709E-05,-0.000676482,,,,,,0.693081469,0.387070734,-25.30027332,-47.51451544,0.361181088,Failure
0.534280087,1.003624128,1.22709E-05,-0.000676482,,,,,,0.694270302,1.357458304,-14.42645785,-30.33924194,-0.167542792,Failure
0.536503517,2.889658965,1.52734E-06,-0.001225772,,,,,,0.696017217,1.231767447,-15.85279838,-32.59631933,-0.107469877,Failure
0.536503517,2.889658965,1.52734E-06,-0.001225772,,,,,,0.700160291,1.179138658,-16.44756584,-33.5371419,-0.080428935,Failure
0.538958952,2.427529791,5.17491E-06,-0.00118225,,,,,,0.706561676,2.77868832,-0.887798395,-4.040889345,-0.348063749,Elastic
0.544784283,2.66737593,3.06371E-06,-0.001212217,,,,,,0.709239632,0.561489688,-23.36268442,-44.45881964,0.263951854,Failure
0.548152111,1.944985819,9.86348E-06,-0.001073223,,,,,,0.711930345,2.614326317,-2.097553697,-7.093923458,-0.495852683,Elastic
0.548152111,1.944985819,9.86348E-06,-0.001073223,,,,,,0.712612777,0.71764729,-21.62453981,-41.7163843,0.173132409,Failure
0.554783428,0.20645159,3.9228E-06,-0.000159502,,,,,,0.714759804,2.50039343,-2.909715467,-9.223097624,-0.545136381,Elastic
0.554783428,0.20645159,3.9228E-06,-0.000159502,,,,,,0.715614948,0.913504682,-19.43288048,-38.25581805,0.062600078,Failure
0.556901822,1.466526921,1.29926E-05,-0.000901424,,,,,,0.716905059,1.061571309,-17.76708651,-35.62355148,-0.01785979,Failure
0.563195919,1.181675254,1.34487E-05,-0.000769671,,,,,,0.717741858,2.328499663,-4.133573022,-12.43896775,-0.539977039,Elastic
0.563195919,1.181675254,1.34487E-05,-0.000769671,,,,,,0.721973491,1.803139533,-9.300791948,-22.2178173,-0.353549689,Failure
0.583333333,0,0,0,,,,,,0.723670888,0.262813906,-26.64620507,-49.63305773,0.460814018,Failure
0.583934817,2.299625651,6.94486E-06,-0.001159589,,,,,,0.732788071,0.797330844,-20.72359831,-40.29395703,0.133639707,Failure
0.583934817,2.299625651,6.94486E-06,-0.001159589,,,,,,0.733428099,0.839085374,-20.25658337,-39.55659709,0.109597356,Failure
0.584009463,1.275110269,1.40089E-05,-0.000815213,,,,,,0.734632836,1.344728238,-14.55495484,-30.54261497,-0.162577556,Failure
0.584009463,1.275110269,1.40089E-05,-0.000815213,,,,,,0.744598386,0.10293129,-28.37946144,-52.35934432,0.585935845,Failure
0.585579377,0.511845878,9.06982E-06,-0.000376314,,,,,,0.748261625,0.540639402,-23.56850592,-44.78193792,0.296608351,Failure
0.585579377,0.511845878,9.06982E-06,-0.000376314,,,,,,0.751445878,1.507331644,-12.69500492,-27.5970802,-0.242528798,Failure
0.587938697,2.068830992,9.40786E-06,-0.001107303,,,,,,0.755013775,1.085832548,-17.47464488,-35.16130442,-0.025432489,Failure
0.587938697,2.068830992,9.40786E-06,-0.001107303,,,,,,0.755378594,2.589442238,-2.29874386,-7.555388764,-0.538845805,Elastic
0.588377188,3,1.07295E-06,-0.001227271,,,,,,0.758879337,2.88997377,-0.113068981,-1.995746824,-0.209918183,Elastic
0.59151303,0.713537281,1.15438E-05,-0.000506796,,,,,,0.759678111,2.536035977,-2.672657544,-8.552562222,-0.566074445,Elastic
0.594523791,0.909955057,1.32023E-05,-0.000623952,,,,,,0.75987355,0.284940639,-26.37865006,-49.20885565,0.471947288,Failure
0.594611659,1.101099206,1.40658E-05,-0.000728414,,,,,,0.76558623,2.719070622,-1.390510696,-5.142785274,-0.443505357,Elastic
0.594611659,1.101099206,1.40658E-05,-0.000728414,,,,,,0.772475361,2.976543681,0.545244504,-0.422970986,-0.049915761,Elastic
0.595585478,2.77931793,2.36964E-06,-0.001220585,,,,,,0.773067106,0.02194376,-29.23990516,-53.70899977,0.669136988,Failure
0.595585478,2.77931793,2.36964E-06,-0.001220585,,,,,,0.776157216,1.87694558,-8.43349747,-20.83931321,-0.396775663,Failure
0.598841808,0.309677385,6.1288E-06,-0.000235316,,,,,,0.777557877,1.672553151,-10.79406492,-24.58344061,-0.322233718,Failure
0.598841808,0.309677385,6.1288E-06,-0.000235316,,,,,,0.785498401,2.405363793,-3.578691228,-10.99220969,-0.601926234,Elastic
0.600727951,1.581407587,1.35533E-05,-0.000948263,,,,,,0.787242845,2.226343165,-4.836007865,-14.33063049,-0.533991537,Elastic
0.600727951,1.581407587,1.35533E-05,-0.000948263,,,,,,0.790227602,1.619429605,-11.39611027,-25.53807296,-0.299040733,Failure
0.603866244,2.557034895,4.41584E-06,-0.001200264,,,,,,0.791761419,0.695535667,-21.82164643,-42.02567413,0.218252445,Failure
0.603866244,2.557034895,4.41584E-06,-0.001200264,,,,,,0.791808412,1.494601577,-12.82440568,-27.80176616,-0.241097357,Failure
0.62145597,1.715381892,1.31899E-05,-0.00099843,,,,,,0.795499007,0.93937062,-19.09766575,-37.72592709,0.06729332,Failure
0.627391714,0.103225795,2.31208E-06,-8.10E-05,,,,,,0.802186253,2.698108722,-1.575802715,-5.529925746,-0.48473144,Elastic
0.627835591,1.389990935,1.49473E-05,-0.000867962,,,,,,0.808621385,2.139982735,-5.45231246,-15.9242879,-0.47289996,Elastic
0.642183989,1.849356196,1.25295E-05,-0.001043672,,,,,,0.811907998,1.243668079,-15.66446389,-32.29867666,-0.106616528,Failure
0.642183989,1.849356196,1.25295E-05,-0.001043672,,,,,,0.813065904,0.435814031,-24.68222319,-46.5336305,0.403469814,Failure
0.642900189,0.41290318,8.43524E-06,-0.000308483,,,,,,0.814812696,2.09212355,-5.93575799,-16.87137504,-0.474452412,Failure
0.642900189,0.41290318,8.43524E-06,-0.000308483,,,,,,0.815054341,0.392027931,-25.16299047,-47.29056715,0.435653691,Failure
0.642900189,0.41290318,8.43524E-06,-0.000308483,,,,,,0.815398049,1.199334534,-16.16281407,-33.0870606,-0.081509039,Failure
0.642900189,0.41290318,8.43524E-06,-0.000308483,,,,,,0.816284338,2.001850751,-6.97959106,-18.52909479,-0.449414395,Failure
0.642900189,0.41290318,8.43524E-06,-0.000308483,,,,,,0.816558618,1.713482744,-10.31537904,-23.82336916,-0.346625566,Failure
0.642900189,0.41290318,8.43524E-06,-0.000308483,,,,,,0.817240902,1.329732074,-14.6878641,-30.75311123,-0.154426735,Failure
0.64745915,2.889658965,1.67256E-06,-0.001225392,,,,,,0.818395672,0.128145514,-28.05034615,-51.83299196,0.630583974,Failure
0.648833842,0.614594583,1.15353E-05,-0.00044393,,,,,,0.823336773,2.435388433,-3.372365056,-10.42552458,-0.628932633,Elastic
0.648842109,2.429130756,6.17551E-06,-0.001182218,,,,,,0.830783412,0.674685382,-22.02743035,-42.34907664,0.249737009,Failure
0.648842109,2.429130756,6.17551E-06,-0.001182218,,,,,,0.831856829,0.516217009,-23.78168816,-45.1140133,0.358645835,Failure
0.652845989,2.198336097,8.97349E-06,-0.001138294,,,,,,0.833260631,2.863021557,-0.442379774,-2.487832896,-0.277092355,Elastic
0.65466744,2.668976895,3.56121E-06,-0.00121204,,,,,,0.833607724,0.96363186,-18.80310518,-37.2604486,0.063177495,Failure
0.65466744,2.668976895,3.56121E-06,-0.00121204,,,,,,0.833611639,1.121777332,-17.02746915,-34.45447609,-0.033825963,Failure
0.654767495,0.816285985,1.38625E-05,-0.00056915,,,,,,0.838142364,1.604317616,-11.55386777,-25.78711278,-0.30268866,Failure
0.654767495,0.816285985,1.38625E-05,-0.00056915,,,,,,0.841183964,0.310830159,-26.03555701,-48.6618282,0.512497087,Failure
0.654855363,1.007430134,1.51851E-05,-0.000678238,,,,,,0.8495275,0.797008271,-20.65435319,-40.18278685,0.175816308,Failure
0.654943231,1.198574284,1.57612E-05,-0.000777824,,,,,,0.850287284,0.846575487,-20.10069234,-39.30906742,0.143146013,Failure
0.654943231,1.198574284,1.57612E-05,-0.000777824,,,,,,0.854598334,0.150272247,-27.78095406,-51.40497796,0.644643192,Failure
0.654943231,1.198574284,1.57612E-05,-0.000777824,,,,,,0.859649888,1.832168526,-8.931675502,-21.62561137,-0.407829526,Failure
0.654943231,1.198574284,1.57612E-05,-0.000777824,,,,,,0.861442141,1.44559601,-13.35129819,-28.63644178,-0.218807222,Failure
0.654943231,1.198574284,1.57612E-05,-0.000777824,,,,,,0.86516584,2.596658899,-2.314816088,-7.411159914,-0.604971502,Elastic
0.654943231,1.198574284,1.57612E-05,-0.000777824,,,,,,0.868787676,2.551670426,-2.612284999,-8.248984808,-0.632219655,Elastic
0.671450094,0.20645159,4.79373E-06,-0.00015939,,,,,,0.869860654,2.842059657,-0.655271435,-2.871422698,-0.324473392,Elastic
0.67166172,1.504871602,1.56282E-05,-0.000917158,,,,,,0.875044017,1.697417683,-10.47810767,-24.07967881,-0.354437612,Failure
0.681970575,1.973201369,1.20474E-05,-0.001081018,,,,,,0.875399929,2.27322142,-4.448953103,-13.43692777,-0.615190212,Elastic
0.69876936,1.31345495,1.68709E-05,-0.000832893,,,,,,0.878240893,2.680362626,-1.77225687,-5.854537441,-0.544175921,Elastic
0.69876936,1.31345495,1.68709E-05,-0.000832893,,,,,,0.880153125,2.972154771,0.273950136,-0.502110968,-0.066598645,Elastic
0.699332821,3,1.03477E-06,-0.001226797,,,,,,0.883958038,1.641376102,-11.112648,-25.08670278,-0.326487972,Failure
0.7,0,0,0,,,,,,0.885568652,0.026049655,-29.10741604,-53.48384241,0.771487624,Failure
0.706154654,0.515651884,1.11056E-05,-0.000378617,,,,,,0.894370972,1.027306542,-18.0523303,-36.07420356,0.038907024,Failure
0.706154654,0.515651884,1.11056E-05,-0.000378617,,,,,,0.895229785,2.469335823,-3.153974808,-9.779356415,-0.673971316,Elastic
0.706541111,2.77931793,2.64729E-06,-0.001220185,,,,,,0.895526518,0.875376245,-19.75011649,-38.75504427,0.140937027,Failure
0.712088307,0.717343287,1.40735E-05,-0.000508844,,,,,,0.895652693,0.619845146,-22.58944193,-43.23242781,0.320239392,Failure
0.713749401,2.55863586,5.11402E-06,-0.001200106,,,,,,0.895850893,0.772256691,-20.89751065,-40.56528685,0.211895762,Failure
0.713749401,2.55863586,5.11402E-06,-0.001200106,,,,,,0.908916936,1.818635608,-9.072209701,-21.84657802,-0.41600295,Failure
0.713749401,2.55863586,5.11402E-06,-0.001200106,,,,,,0.911555476,1.993736962,-7.047728387,-18.62877665,-0.488447948,Failure
0.713749401,2.55863586,5.11402E-06,-0.001200106,,,,,,0.913238302,2.30324606,-4.228548797,-12.86908067,-0.654219986,Elastic
0.713749401,2.55863586,5.11402E-06,-0.001200106,,,,,,0.914173192,1.511734049,-12.57424235,-27.40483844,-0.257810317,Failure
0.713749401,2.55863586,5.11402E-06,-0.001200106,,,,,,0.914413708,0.206720848,-27.11679059,-50.35370207,0.650373795,Failure
0.715099068,0.913761063,1.60551E-05,-0.000625768,,,,,,0.923601374,2.947270692,-0.010577296,-0.952541663,-0.128388743,Elastic
0.715186936,1.104905212,1.70839E-05,-0.000730017,,,,,,0.928545191,0.052316518,-28.78646627,-52.97293499,0.790481209,Failure
0.715186936,1.104905212,1.70839E-05,-0.000730017,,,,,,0.930558554,2.791648077,-1.099555719,-3.795540316,-0.428494732,Elastic
0.715487849,1.619752268,1.60193E-05,-0.00096277,,,,,,0.937194787,1.346526992,-14.43532432,-30.35382764,-0.156680762,Failure
0.715487849,1.619752268,1.60193E-05,-0.00096277,,,,,,0.938234038,2.171918309,-5.089378401,-15.29165025,-0.564284494,Elastic
0.715508475,0.309677385,7.39602E-06,-0.000235145,,,,,,0.941616527,0.852858456,-19.96851546,-39.09878294,0.17506833,Failure
0.715508475,0.309677385,7.39602E-06,-0.000235145,,,,,,0.942700686,0.799306118,-20.56406765,-40.03811432,0.213902977,Failure
0.717753281,2.327841201,8.15245E-06,-0.001164562,,,,,,0.945583804,2.115104197,-5.651130747,-16.40031846,-0.556798614,Failure
0.721757161,2.097046542,1.12563E-05,-0.001114093,,,,,,0.952767491,1.54295145,-12.20131429,-26.81344182,-0.277066624,Failure
0.721757161,2.097046542,1.12563E-05,-0.001114093,,,,,,0.953565523,1.138572251,-16.76786005,-34.04428457,-0.018905541,Failure
0.736215868,1.753726572,1.54036E-05,-0.001011519,,,,,,0.955972504,0.980764332,-18.53246884,-36.8321255,0.090119568,Failure
0.736215868,1.753726572,1.54036E-05,-0.001011519,,,,,,0.959180164,0.5170851,-23.67525736,-44.93836039,0.435391466,Failure
0.742595489,1.428335616,1.77089E-05,-0.000884426,,,,,,0.960665757,0.67557092,-21.92307819,-42.17955155,0.313495308,Failure
0.742595489,1.428335616,1.77089E-05,-0.000884426,,,,,,0.960822523,1.980204044,-7.190724774,-18.85172169,-0.504078774,Failure
0.74405838,0.103225795,2.77235E-06,-8.09E-05,,,,,,0.962721784,2.975115921,0.09523573,-0.448527686,-0.064723541,Elastic
0.758414782,2.889658965,1.72173E-06,-0.001224901,,,,,,0.964730772,2.367179325,-3.796920809,-11.66752835,-0.710392896,Elastic
0.765623072,2.668976895,4.01906E-06,-0.001211612,,,,,,0.967071803,1.26539279,-15.33329363,-31.77545363,-0.100263121,Failure
0.765623072,2.668976895,4.01906E-06,-0.001211612,,,,,,0.968507298,0.31169825,-25.92366174,-48.47264365,0.608018305,Failure
0.769143004,0.413763904,1.02221E-05,-0.000308829,,,,,,0.970561855,1.221059245,-15.83087846,-32.56269622,-0.070153793,Failure
0.769143004,0.413763904,1.02221E-05,-0.000308829,,,,,,0.976309872,0.026266864,-29.02761433,-53.34248058,0.858826746,Failure
0.769409119,0.618400589,1.38786E-05,-0.000446066,,,,,,0.977762304,0.436936932,-24.54199639,-46.30015277,0.511971569,Failure
0.769409119,0.618400589,1.38786E-05,-0.000446066,,,,,,0.979750741,0.393150832,-25.02118557,-47.05326353,0.549226118,Failure
0.773879137,1.215226674,1.882E-05,-0.000785612,,,,,,0.983152344,2.207560856,-4.803575145,-14.61152603,-0.617979312,Elastic
0.773879137,1.215226674,1.882E-05,-0.000785612,,,,,,0.984480679,0.151157785,-27.66288775,-51.20087707,0.757599166,Failure
0.775342772,0.820091992,1.66208E-05,-0.000571032,,,,,,0.986209411,2.854131958,-0.783431416,-2.647774301,-0.338918793,Elastic
0.775342772,0.820091992,1.66208E-05,-0.000571032,,,,,,0.992297284,2.692197072,-1.818727666,-5.625907159,-0.590144339,Elastic
0.77543064,1.011236141,1.81808E-05,-0.000679895,,,,,,0.994797898,0.961795752,-18.71685882,-37.12273825,0.118166261,Failure
0.77543064,1.011236141,1.81808E-05,-0.000679895,,,,,,1.000131179,0.698356871,-21.64060032,-41.73263594,0.317960859,Failure
0.776002454,1.877571746,1.49505E-05,-0.001052113,,,,,,1.004069203,2.099039136,-5.809481454,-16.64647214,-0.574398413,Failure
0.782660573,2.457346305,6.97635E-06,-0.001186084,,,,,,1.007253469,1.81346691,-9.093484542,-21.87603025,-0.440321573,Failure
0.782660573,2.457346305,6.97635E-06,-0.001186084,,,,,,1.009286177,2.481170269,-3.100366055,-9.535018249,-0.742028231,Elastic
0.786421617,1.543216283,1.82394E-05,-0.000932394,,,,,,1.009679475,1.724111019,-10.11919712,-23.50717841,-0.388493605,Failure
0.786421617,1.543216283,1.82394E-05,-0.000932394,,,,,,1.012161422,1.38358542,-13.97370487,-29.62332885,-0.172335768,Failure
0.786664453,2.226551646,1.04313E-05,-0.001143994,,,,,,1.012701068,2.611967096,-2.32441922,-7.107984891,-0.678514228,Elastic
0.788116761,0.20645159,5.69011E-06,-0.000159252,,,,,,1.016322903,2.566978623,-2.594888275,-7.941667025,-0.711782683,Elastic
0.788116761,0.20645159,5.69011E-06,-0.000159252,,,,,,1.017188486,1.676902601,-10.64942357,-24.34965917,-0.361511709,Failure
0.810288453,3,8.71378E-07,-0.001226194,,,,,,1.019163739,2.877588277,-0.697946481,-2.218875053,-0.300090694,Elastic
0.815789039,2.001416919,1.41407E-05,-0.001088451,,,,,,1.024716786,0.129214025,-27.86589496,-51.51243782,0.813575788,Failure
0.816666667,0,0,0,,,,,,1.025878957,2.189474093,-4.878752479,-14.9356977,-0.612190828,Elastic
0.817496743,2.77931793,2.84163E-06,-0.001219669,,,,,,1.029587058,2.315318361,-4.089419383,-12.60964962,-0.724468735,Elastic
0.817496743,2.77931793,2.84163E-06,-0.001219669,,,,,,1.032542361,1.124689731,-16.87077835,-34.20697167,0.013426268,Failure
0.817705266,1.33010734,1.99127E-05,-0.000840124,,,,,,1.03944605,2.137766485,-5.365809269,-15.93263259,-0.61134645,Failure
0.826837862,2.570369874,5.63303E-06,-0.001201035,,,,,,1.042475882,1.59202704,-11.59767851,-25.85577112,-0.308234688,Failure
0.826837862,2.570369874,5.63303E-06,-0.001201035,,,,,,1.042840371,0.542647841,-23.32406388,-44.37932126,0.469309264,Failure
0.830247746,1.658096949,1.84331E-05,-0.000976768,,,,,,1.04738059,1.938372081,-7.644276731,-19.56671284,-0.51798912,Failure
0.830247746,1.658096949,1.84331E-05,-0.000976768,,,,,,1.050755721,1.414802822,-13.59780179,-29.02817756,-0.188475744,Failure
0.830247746,1.658096949,1.84331E-05,-0.000976768,,,,,,1.054452296,0.286949078,-26.1187858,-48.76770382,0.698939526,Failure
0.830247746,1.658096949,1.84331E-05,-0.000976768,,,,,,1.060337329,0.852860581,-19.8804772,-38.95670106,0.228678261,Failure
0.830247746,1.658096949,1.84331E-05,-0.000976768,,,,,,1.061250605,0.807749056,-20.37999137,-39.74392838,0.264464022,Failure
0.830247746,1.658096949,1.84331E-05,-0.000976768,,,,,,1.062304857,2.9790381,-0.142124702,-0.377798109,-0.059409921,Elastic
0.832397469,0.516512609,1.32618E-05,-0.000378862,,,,,,1.065579187,2.300082397,-4.155592711,-12.87648858,-0.73417754,Elastic
0.832663584,0.721149294,1.66891E-05,-0.000510807,,,,,,1.066070237,2.725489219,-1.712226404,-5.004781039,-0.580823841,Elastic
0.832663584,0.721149294,1.66891E-05,-0.000510807,,,,,,1.071367755,1.105721152,-17.05551872,-34.49873787,0.0402343,Failure
0.834122841,1.121557602,2.01907E-05,-0.000738168,,,,,,1.076488707,0.93833089,-18.91793154,-37.43847414,0.169729198,Failure
0.835674345,0.917567069,1.8996E-05,-0.000627485,,,,,,1.080772599,0.726726886,-21.26121352,-41.13092937,0.340737069,Failure
0.835674345,0.917567069,1.8996E-05,-0.000627485,,,,,,1.08171825,1.285770012,-15.03142296,-31.29860881,-0.091265008,Failure
0.84175129,0.310538109,8.83107E-06,-0.000235537,,,,,,1.082305793,0.565433792,-23.03928869,-43.92813654,0.476913028,Failure
0.851571745,2.356056751,9.18996E-06,-0.001169153,,,,,,1.085136966,2.901674307,-0.692880897,-1.779301227,-0.260101402,Elastic
0.851571745,2.356056751,9.18996E-06,-0.001169153,,,,,,1.085861325,1.233141223,-15.61892581,-32.22806363,-0.051007576,Failure
0.855575625,2.125262092,1.29854E-05,-0.001120507,,,,,,1.087220757,2.46276893,-3.219361272,-9.855922749,-0.788215412,Elastic
0.855575625,2.125262092,1.29854E-05,-0.001120507,,,,,,1.089566116,0.022126733,-28.96838526,-53.22600523,0.975399319,Failure
0.860725047,0.103225795,3.24751E-06,-8.09E-05,,,,,,1.094688403,0.265005318,-26.32136322,-49.07926407,0.752961707,Failure
0.860725047,0.103225795,3.24751E-06,-8.09E-05,,,,,,1.099024566,2.748945539,-1.623961768,-4.570386605,-0.559436713,Elastic
0.861531394,1.444988006,2.06828E-05,-0.000891096,,,,,,1.100117818,0.441840916,-24.38138187,-46.03484433,0.597616149,Failure
0.869370415,2.889658965,1.65837E-06,-0.001224277,,,,,,1.102478311,0.389862004,-24.94887882,-46.92535477,0.645858587,Failure
0.869370415,2.889658965,1.65837E-06,-0.001224277,,,,,,1.10251868,2.013095036,-6.767252145,-18.16458813,-0.572289945,Failure
0.870034332,1.781942122,1.80727E-05,-0.001020585,,,,,,1.103148656,0.103789558,-28.06902965,-51.81551824,0.911321688,Failure
0.870034332,1.781942122,1.80727E-05,-0.001020585,,,,,,1.118228528,1.492958022,-12.67320025,-27.56318422,-0.235595627,Failure
0.878711533,2.680710909,4.2465E-06,-0.001212091,,,,,,1.122116763,2.627494845,-2.330137252,-6.802742525,-0.718092581,Elastic
0.892815043,1.231879063,2.1963E-05,-0.000793207,,,,,,1.123212887,2.447532967,-3.308245313,-10.12749231,-0.807706113,Elastic
0.892815043,1.231879063,2.1963E-05,-0.000793207,,,,,,1.123422422,2.214272228,-4.60652399,-14.43707884,-0.684363954,Elastic
0.894366546,1.027888531,2.13102E-05,-0.000688411,,,,,,1.12641628,2.574088584,-2.624360286,-7.787540326,-0.7626818,Elastic
0.895385819,0.414624628,1.20731E-05,-0.000309113,,,,,,1.127533924,1.322828498,-14.58329272,-30.58978717,-0.108020113,Failure
0.895385819,0.414624628,1.20731E-05,-0.000309113,,,,,,1.131951334,1.210623434,-15.83819673,-32.57496332,-0.019447089,Failure
0.895651934,0.619261313,1.63701E-05,-0.000446202,,,,,,1.132319499,2.045718258,-6.381098143,-17.54525836,-0.600058087,Failure
0.895749034,2.469080319,7.70071E-06,-0.001187282,,,,,,1.133558552,2.295712201,-4.135872407,-12.92924394,-0.764025163,Elastic
0.895918049,0.823897998,1.9472E-05,-0.000572814,,,,,,1.134851096,2.17071467,-4.965744822,-15.28163268,-0.663505103,Failure
0.895918049,0.823897998,1.9472E-05,-0.000572814,,,,,,1.135683258,1.049596599,-17.63347343,-35.41071988,0.10836821,Failure
0.895918049,0.823897998,1.9472E-05,-0.000572814,,,,,,1.14430007,0.623966841,-22.34012822,-42.82357921,0.468435546,Failure
0.895918049,0.823897998,1.9472E-05,-0.000572814,,,,,,1.146157853,1.845709866,-8.658735091,-21.17930334,-0.486501937,Failure
0.895918049,0.823897998,1.9472E-05,-0.000572814,,,,,,1.146875696,2.802223302,-1.404995549,-3.59057469,-0.484604168,Elastic
0.895918049,0.823897998,1.9472E-05,-0.000572814,,,,,,1.146967611,0.468890344,-24.04134075,-45.49534523,0.609176616,Failure
0.905357523,1.559868673,2.1096E-05,-0.000938495,,,,,,1.150242992,0.363812349,-25.18923873,-47.29561802,0.708643439,Failure
0.905357523,1.559868673,2.1096E-05,-0.000938495,,,,,,1.157242246,0.20876696,-26.87449509,-49.93462993,0.862167478,Failure
0.909820918,1.905787295,1.7306E-05,-0.001060167,,,,,,1.161237173,2.655340074,-2.220502924,-6.283302825,-0.706129334,Elastic
0.909820918,1.905787295,1.7306E-05,-0.001060167,,,,,,1.169142892,2.55600182,-2.746449129,-8.110548722,-0.793346074,Elastic
0.914359576,0.207312314,6.71868E-06,-0.000159713,,,,,,1.178113956,2.409703145,-3.507796105,-10.80525403,-0.832453033,Elastic
0.920482917,2.254767196,1.17365E-05,-0.001149296,,,,,,1.178390959,1.299168074,-14.81255475,-30.95310704,-0.075267446,Failure
0.920482917,2.254767196,1.17365E-05,-0.001149296,,,,,,1.178665295,1.2395918,-15.47851837,-32.00643601,-0.027768253,Failure
0.921244086,3,5.62316E-07,-0.001225439,,,,,,1.181380266,1.624269996,-11.14945427,-25.14464006,-0.328676193,Failure
0.921244086,3,5.62316E-07,-0.001225439,,,,,,1.187166877,2.091397371,-5.841709728,-16.67812482,-0.641408186,Failure
0.921244086,3,5.62316E-07,-0.001225439,,,,,,1.189166825,2.901674307,-0.945556922,-1.777474724,-0.2771162,Elastic
0.930585204,2.791051944,2.7815E-06,-0.001219678,,,,,,1.189356296,1.765818212,-9.542450581,-22.5874164,-0.434421226,Failure
0.933333333,0,0,0,,,,,,1.192451877,1.447693814,-13.13431347,-28.29536318,-0.191167209,Failure
0.933333333,0,0,0,,,,,,1.193251314,0.443382023,-24.2775949,-45.85979116,0.669547925,Failure
0.933333333,0,0,0,,,,,,1.194166202,0.390282941,-24.8573906,-46.76863014,0.720476645,Failure
0.936641171,1.34675973,2.30275E-05,-0.00084715,,,,,,1.196865307,1.718609794,-10.0790471,-23.4419328,-0.399907642,Failure
0.939926323,2.582103888,6.04135E-06,-0.001201782,,,,,,1.196870476,2.9790381,-0.532355729,-0.377689578,-0.064966141,Elastic
0.939926323,2.582103888,6.04135E-06,-0.001201782,,,,,,1.19729146,1.110287966,-16.90863964,-34.26574411,0.085762432,Failure
0.949607504,2.029632468,1.61372E-05,-0.001095482,,,,,,1.199931396,0.942807727,-18.76849048,-37.19910376,0.226707764,Failure
0.949607504,2.029632468,1.61372E-05,-0.001095482,,,,,,1.204215288,0.731203723,-21.10455232,-40.87608885,0.413574201,Failure
0.953058747,1.138209992,2.33982E-05,-0.000746121,,,,,,1.205145271,2.748945539,-1.791623758,-4.56025183,-0.594254966,Elastic
0.95461025,0.934219459,2.21201E-05,-0.000636366,,,,,,1.20705058,2.633217156,-2.382844776,-6.681005867,-0.746697921,Elastic
0.95461025,0.934219459,2.21201E-05,-0.000636366,,,,,,1.208229498,0.570000606,-22.8746752,-43.65668705,0.563247759,Failure
0.958640284,0.517373333,1.54953E-05,-0.000379029,,,,,,1.210656783,2.587285164,-2.615839098,-7.523910956,-0.788582234,Elastic
0.958906399,0.722010018,1.948E-05,-0.000510826,,,,,,1.214718524,0.265005318,-26.20470688,-48.87495638,0.86043226,Failure
0.958906399,0.722010018,1.948E-05,-0.000510826,,,,,,1.220014003,0.858651498,-19.68299287,-38.63853028,0.310524121,Failure
0.964660206,2.367790765,1.01509E-05,-0.001170604,,,,,,1.22081388,0.103789558,-27.95201838,-51.6056871,1.027738822,Failure
0.967973329,1.690066278,2.14103E-05,-0.00098778,,,,,,1.220927279,0.813539973,-20.18103354,-39.422272,0.351091513,Failure
0.967973329,1.690066278,2.14103E-05,-0.00098778,,,,,,1.226507023,2.478004791,-3.163122149,-9.527910321,-0.849225009,Elastic
0.967994105,0.311398833,1.03232E-05,-0.000235879,,,,,,1.230289914,1.893233792,-8.073959542,-20.24474629,-0.528175118,Failure
0.9804673,1.461640396,2.37171E-05,-0.000897546,,,,,,1.234817533,2.325583653,-3.914063897,-12.32705683,-0.826918738,Elastic
0.9804673,1.461640396,2.37171E-05,-0.000897546,,,,,,1.235292928,1.427762698,-13.32683043,-28.60131643,-0.163858989,Failure
0.982458876,2.901392979,1.32187E-06,-0.001223794,,,,,,1.236642459,1.134690396,-16.60419677,-33.78467182,0.081565606,Failure
0.982458876,2.901392979,1.32187E-06,-0.001223794,,,,,,1.241769472,0.022126733,-28.81600967,-52.94924103,1.133097979,Failure
0.986967862,0.104086519,3.811E-06,-8.14E-05,,,,,,1.24373766,2.730309591,-1.946667219,-4.896044549,-0.634732977,Elastic
0.986967862,0.104086519,3.811E-06,-8.14E-05,,,,,,1.247218056,0.548512856,-23.07324095,-43.96347885,0.613159177,Failure
0.98939409,2.153477641,1.45843E-05,-0.001126503,,,,,,1.251718645,0.287303668,-25.92392901,-48.42822869,0.872267658,Failure
0.98939409,2.153477641,1.45843E-05,-0.001126503,,,,,,1.25440383,2.252911812,-4.255824902,-13.6501717,-0.778588151,Elastic
0.98939409,2.153477641,1.45843E-05,-0.001126503,,,,,,1.259850064,2.877588277,-1.246989788,-2.212650103,-0.347029996,Elastic
0.98939409,2.153477641,1.45843E-05,-0.001126503,,,,,,1.260090733,1.925857014,-7.686011398,-19.62383263,-0.556529136,Failure
0.98939409,2.153477641,1.45843E-05,-0.001126503,,,,,,1.261477577,2.504357316,-3.047690687,-9.031771008,-0.854247948,Elastic
0.98939409,2.153477641,1.45843E-05,-0.001126503,,,,,,1.265832505,2.209354254,-4.481960324,-14.4833996,-0.747300167,Failure
0.991799994,2.692444923,4.33601E-06,-0.001212368,,,,,,1.274140469,1.617549635,-11.16477812,-25.17028436,-0.316802945,Failure
1.007759914,1.813911451,2.07384E-05,-0.001030449,,,,,,1.280398278,0.972153484,-18.37386693,-36.57403512,0.245849457,Failure
1.008837495,2.480814333,8.32871E-06,-0.001188282,,,,,,1.285731559,0.708714602,-21.27607367,-41.13822477,0.490705547,Failure
1.011750948,1.248531453,2.51978E-05,-0.000800585,,,,,,1.285944139,1.998735156,-6.844731168,-18.27617387,-0.613921454,Failure
1.011750948,1.248531453,2.51978E-05,-0.000800585,,,,,,1.288425857,2.121268823,-5.4543688,-16.04657468,-0.694461292,Failure
1.013302451,1.044540921,2.4556E-05,-0.000696722,,,,,,1.296950263,0.129214025,-27.59646283,-51.03081532,1.079026544,Failure
1.013302451,1.044540921,2.4556E-05,-0.000696722,,,,,,1.29722053,2.975115921,-0.862208255,-0.44811623,-0.079998741,Elastic
1.018313151,0.828336842,2.24796E-05,-0.000574845,,,,,,1.298442453,2.85895233,-1.430225055,-2.549469986,-0.396924199,Elastic
1.018313151,0.828336842,2.24796E-05,-0.000574845,,,,,,1.299854732,2.369193805,-3.67849082,-11.49265836,-0.868698024,Elastic
1.021628634,0.415485352,1.39958E-05,-0.000309329,,,,,,1.300935655,1.298410598,-14.72326539,-30.81271377,-0.033383649,Failure
1.021628634,0.415485352,1.39958E-05,-0.000309329,,,,,,1.30116675,1.248224618,-15.28478499,-31.70034185,0.011931251,Failure
1.021894749,0.620122037,1.89515E-05,-0.000446243,,,,,,1.309988234,0.439951249,-24.19872741,-45.71735456,0.771778695,Failure
1.021894749,0.620122037,1.89515E-05,-0.000446243,,,,,,1.31075892,0.395221538,-24.68663907,-46.48072483,0.817934849,Failure
1.024391104,3,1.26419E-07,-0.001224577,,,,,,1.31698152,1.59761852,-11.35325357,-25.47081093,-0.294423818,Failure
1.033571378,2.26650121,1.29597E-05,-0.001150986,,,,,,1.319182447,1.399467416,-13.57785522,-29.00030552,-0.116905684,Failure
1.033571378,2.26650121,1.29597E-05,-0.001150986,,,,,,1.319749277,0.996555913,-18.06733433,-36.08949541,0.245647502,Failure
1.040602391,0.208173038,7.79327E-06,-0.000160136,,,,,,1.320266442,1.164060735,-16.20729673,-33.15700372,0.094998015,Failure
1.040602391,0.208173038,7.79327E-06,-0.000160136,,,,,,1.321678692,1.801092037,-9.057835887,-21.81536703,-0.463595512,Failure
1.043083105,1.591838002,2.43385E-05,-0.00095024,,,,,,1.324393489,2.64011674,-2.47372644,-6.527658676,-0.775113588,Elastic
1.043673665,2.802785958,2.553E-06,-0.001219463,,,,,,1.324720117,0.687226852,-21.4747458,-41.44588811,0.539631328,Failure
1.043673665,2.802785958,2.553E-06,-0.001219463,,,,,,1.327183158,0.523174549,-23.27100072,-44.26170967,0.703225766,Failure
1.0475465,1.937756624,1.96057E-05,-0.001068871,,,,,,1.327431289,2.601424457,-2.646744789,-7.232638302,-0.814323378,Elastic
1.05,0,0,0,,,,,,1.32790048,2.714807924,-2.147921246,-5.166118957,-0.678254203,Elastic
1.053014783,2.593837902,6.32546E-06,-0.001202314,,,,,,1.330592713,1.745050457,-9.683246157,-22.81291712,-0.418058232,Failure
1.053014783,2.593837902,6.32546E-06,-0.001202314,,,,,,1.3307982,0.313361518,-25.55832493,-47.83954963,0.920484498,Failure
1.055577077,1.36341212,2.6222E-05,-0.000853944,,,,,,1.333950384,0.151512375,-27.31477208,-50.58123551,1.093421384,Failure
1.055577077,1.36341212,2.6222E-05,-0.000853944,,,,,,1.334825287,2.395546331,-3.549161561,-10.99316216,-0.885810367,Elastic
1.071994653,1.154862382,2.67138E-05,-0.000753851,,,,,,1.3385355,0.867253326,-19.4797771,-38.31084238,0.378581001,Failure
1.071994653,1.154862382,2.67138E-05,-0.000753851,,,,,,1.33961966,0.813700988,-20.06855554,-39.23615923,0.429905644,Failure
1.077005353,0.938658304,2.53375E-05,-0.000638164,,,,,,1.342149848,2.53331457,-2.952075836,-8.472305053,-0.866669254,Elastic
1.077748667,2.379524778,1.10331E-05,-0.001171841,,,,,,1.343033937,2.952993003,-1.109273818,-0.847301965,-0.149813359,Elastic
1.077748667,2.379524778,1.10331E-05,-0.001171841,,,,,,1.351468191,2.285523087,-4.024787334,-12.99306211,-0.835601299,Elastic
1.081301501,0.726448862,2.2349E-05,-0.000512959,,,,,,1.354651918,0.026266864,-28.6504053,-52.65691933,1.250254769,Failure
1.084883099,0.518234057,1.78143E-05,-0.000379108,,,,,,1.357055539,1.839819386,-8.594245479,-21.07527893,-0.496109912,Failure
1.084883099,0.518234057,1.78143E-05,-0.000379108,,,,,,1.363384869,1.956328838,-7.275828588,-18.96385081,-0.597063728,Failure
1.085605893,2.901392979,9.85266E-07,-0.001222889,,,,,,1.365035284,2.233815479,-4.255181817,-13.92722861,-0.790972955,Elastic
1.087333086,2.061601797,1.80225E-05,-0.001103012,,,,,,1.366595044,2.114829666,-5.487402973,-16.0935951,-0.710229998,Failure
1.087333086,2.061601797,1.80225E-05,-0.001103012,,,,,,1.370191608,2.814258928,-1.791572192,-3.354926982,-0.505782358,Elastic
1.089793744,2.183095592,1.55076E-05,-0.001132619,,,,,,1.377813692,2.977877083,-1.105324392,-0.398156738,-0.073192545,Elastic
1.089793744,2.183095592,1.55076E-05,-0.001132619,,,,,,1.381449748,1.721390033,-9.922595761,-23.19533689,-0.394185584,Failure
1.09423692,0.312259557,1.18782E-05,-0.000236163,,,,,,1.382334185,1.530779391,-12.04959604,-26.57860676,-0.220059632,Failure
1.09423692,0.312259557,1.18782E-05,-0.000236163,,,,,,1.38451458,1.057271863,-17.33571352,-34.93423448,0.22746984,Failure
1.103634529,0.104086519,4.32693E-06,-8.13E-05,,,,,,1.385249461,0.896221691,-19.11458932,-37.7330698,0.382148462,Failure
1.104888455,2.704178937,4.26973E-06,-0.001212408,,,,,,1.385903363,0.788192667,-20.30491946,-39.60280355,0.487769011,Failure
1.104888455,2.704178937,4.26973E-06,-0.001212408,,,,,,1.387098377,0.630411431,-22.03516215,-42.316242,0.645568752,Failure
1.105698911,1.722035607,2.43643E-05,-0.000998271,,,,,,1.392982082,2.316806431,-3.862507013,-12.40285177,-0.869350965,Elastic
1.105698911,1.722035607,2.43643E-05,-0.000998271,,,,,,1.394369834,0.208384117,-26.63172335,-49.49900428,1.094989985,Failure
1.118192882,1.493609725,2.7217E-05,-0.000910011,,,,,,1.398575128,0.052737455,-28.31508331,-52.12029236,1.269572232,Failure
1.121925956,2.492548347,8.84998E-06,-0.00118905,,,,,,1.398853424,2.449195078,-3.317866246,-9.981023041,-0.906325153,Elastic
1.121925956,2.492548347,8.84998E-06,-0.00118905,,,,,,1.404918721,1.956956142,-7.241575668,-18.91048798,-0.593623409,Failure
1.127538121,3,-4.70E-07,-0.001223533,,,,,,1.406360785,1.840564065,-8.54868892,-21.00144499,-0.504420933,Failure
1.130686854,1.265183843,2.85309E-05,-0.00080772,,,,,,1.408128895,2.11545697,-5.46201034,-16.0501827,-0.719133503,Failure
1.130686854,1.265183843,2.85309E-05,-0.00080772,,,,,,1.41434053,2.234560158,-4.18446616,-13.89262934,-0.807166148,Elastic
1.130686854,1.265183843,2.85309E-05,-0.00080772,,,,,,1.422239399,2.870209301,-1.680006801,-2.339873803,-0.381525978,Elastic
1.130686854,1.265183843,2.85309E-05,-0.00080772,,,,,,1.431138922,2.289028927,-3.964806313,-12.86913465,-0.85765229,Elastic
1.130686854,1.265183843,2.85309E-05,-0.00080772,,,,,,1.431211583,1.749111868,-9.558726646,-22.61574235,-0.419168617,Failure
1.130686854,1.265183843,2.85309E-05,-0.00080772,,,,,,1.431625583,0.81504254,-19.96276317,-39.06070924,0.49523232,Failure
1.133971033,2.29611916,1.35461E-05,-0.001156088,,,,,,1.43205584,0.869519226,-19.36380584,-38.12038641,0.441463488,Failure
1.135697554,1.048979765,2.79345E-05,-0.000698275,,,,,,1.43970018,1.804770051,-8.9305504,-21.61278565,-0.469677711,Failure
1.140708254,0.832775687,2.56043E-05,-0.000576738,,,,,,1.44392321,0.026470592,-28.54871582,-52.46794829,1.349404577,Failure
1.140708254,0.832775687,2.56043E-05,-0.000576738,,,,,,1.446683584,1.403975855,-13.41687226,-28.74713161,-0.078218812,Failure
1.144289851,0.624560882,2.16325E-05,-0.000448492,,,,,,1.447045241,1.602217571,-11.19542485,-25.22366319,-0.271359218,Failure
1.145485497,1.84588078,2.33426E-05,-0.00103977,,,,,,1.447767578,1.168569173,-16.04015412,-32.89052253,0.155216216,Failure
1.146820683,2.802785958,2.37203E-06,-0.0012185,,,,,,1.448609721,0.68805743,-21.33974175,-41.21729256,0.63821355,Failure
1.147871448,0.416346076,1.59965E-05,-0.000309469,,,,,,1.448631824,0.523988762,-23.13471401,-44.02628651,0.809158105,Failure
1.147871448,0.416346076,1.59965E-05,-0.000309469,,,,,,1.449258313,2.725843104,-2.292447469,-4.944068827,-0.677253054,Elastic
1.147871448,0.416346076,1.59965E-05,-0.000309469,,,,,,1.449812998,1.001154964,-17.89328976,-35.80798116,0.323595747,Failure
1.147871448,0.416346076,1.59965E-05,-0.000309469,,,,,,1.451537238,2.891171201,-1.674515902,-1.96074648,-0.329133237,Elastic
1.147871448,0.416346076,1.59965E-05,-0.000309469,,,,,,1.452246865,0.314175732,-25.41758663,-47.5897861,1.038695626,Failure
1.147871448,0.416346076,1.59965E-05,-0.000309469,,,,,,1.457839988,0.152342953,-27.1690622,-50.3167515,1.223817114,Failure
1.157269058,0.208173038,8.79976E-06,-0.000159898,,,,,,1.458622233,2.406803302,-3.480163474,-10.71878662,-0.917320961,Elastic
1.166103244,2.605571916,6.47095E-06,-0.001202595,,,,,,1.46350768,2.544349751,-2.981083717,-8.22029405,-0.883564789,Elastic
1.166103244,2.605571916,6.47095E-06,-0.001202595,,,,,,1.465862048,1.304242393,-14.51186228,-30.47863205,0.02960082,Failure
1.166103244,2.605571916,6.47095E-06,-0.001202595,,,,,,1.466093143,1.254056412,-15.07134176,-31.36203303,0.078976431,Failure
1.166103244,2.605571916,6.47095E-06,-0.001202595,,,,,,1.467085581,0.441004457,-24.02010505,-45.40547434,0.91530689,Failure
1.166103244,2.605571916,6.47095E-06,-0.001202595,,,,,,1.467856266,0.396274746,-24.50646966,-46.16447725,0.964398574,Failure
1.166103244,2.605571916,6.47095E-06,-0.001202595,,,,,,1.469533763,2.981364053,-1.390613123,-0.335576096,-0.062698074,Elastic
1.166666667,0,0,0,,,,,,1.480766398,2.001677643,-6.689397291,-18.02290135,-0.638759043,Failure
1.178148321,2.409142729,1.12672E-05,-0.001175912,,,,,,1.481373341,2.654391064,-2.59966978,-6.225692764,-0.779946351,Elastic
1.180808688,1.623807331,2.75917E-05,-0.000961439,,,,,,1.483248117,2.12421131,-5.316564435,-15.81171183,-0.740220967,Failure
1.185272083,1.969725953,2.18029E-05,-0.001077007,,,,,,1.484411142,2.615698781,-2.741967868,-6.921970398,-0.823840251,Elastic
1.185272083,1.969725953,2.18029E-05,-0.001077007,,,,,,1.487125296,0.710675279,-21.05129173,-40.75949922,0.646851182,Failure
1.187732741,2.091219748,1.91596E-05,-0.00110973,,,,,,1.488963715,1.625569945,-10.89794271,-24.75185727,-0.285546174,Failure
1.188752911,2.901392979,5.06515E-07,-0.001221792,,,,,,1.489241849,0.978661288,-18.10225456,-36.13351155,0.372161829,Failure
1.190193398,2.212713542,1.62947E-05,-0.001138322,,,,,,1.490764867,2.383404034,-3.563681143,-11.12244217,-0.913045882,Elastic
1.190193398,2.212713542,1.62947E-05,-0.001138322,,,,,,1.496040396,0.13021622,-27.3654119,-50.60926554,1.290474596,Failure
1.193302659,1.395381449,2.99662E-05,-0.000867121,,,,,,1.502636985,1.929520298,-7.484894094,-19.30039499,-0.57637033,Failure
1.193302659,1.395381449,2.99662E-05,-0.000867121,,,,,,1.507618575,2.912584621,-1.749381411,-1.573364504,-0.27154904,Elastic
1.194389755,1.159301226,3.02034E-05,-0.000755148,,,,,,1.508378757,2.213017538,-4.323956125,-14.20495,-0.814326734,Failure
1.194389755,1.159301226,3.02034E-05,-0.000755148,,,,,,1.52252942,2.258901049,-3.960511123,-13.36045531,-0.852397887,Elastic
1.199400455,0.943097148,2.86771E-05,-0.000639799,,,,,,1.524514459,2.755840886,-2.314540327,-4.389746962,-0.627274534,Elastic
1.203696604,0.730887706,2.53365E-05,-0.000514957,,,,,,1.528205007,0.550396642,-22.75947509,-43.42289205,0.854769252,Failure
1.207278201,0.522672901,2.02551E-05,-0.000381494,,,,,,1.530283042,1.438193544,-12.9553045,-28.01754871,-0.080606497,Failure
1.207278201,0.522672901,2.02551E-05,-0.000381494,,,,,,1.530721491,1.899368065,-7.795075304,-19.79889046,-0.54671182,Failure
1.208035472,2.704178937,4.2953E-06,-0.001211372,,,,,,1.531632573,1.145121241,-16.2162828,-33.16457893,0.229258014,Failure
1.208035472,2.704178937,4.2953E-06,-0.001211372,,,,,,1.532705596,0.289187454,-25.59809119,-47.84741834,1.149873346,Failure
1.210903586,0.312259557,1.33457E-05,-0.000235798,,,,,,1.542254376,2.529888611,-3.080106045,-8.441548943,-0.896955037,Elastic
1.210903586,0.312259557,1.33457E-05,-0.000235798,,,,,,1.549624433,2.339436456,-3.686037803,-11.86037369,-0.904638863,Elastic
1.220301195,0.104086519,4.86282E-06,-8.12E-05,,,,,,1.549640464,0.819308863,-19.79330297,-38.77953623,0.584946509,Failure
1.22232561,2.522166297,8.72252E-06,-0.001192073,,,,,,1.550002904,0.865199043,-19.28842481,-37.98836456,0.536463286,Failure
1.22232561,2.522166297,8.72252E-06,-0.001192073,,,,,,1.553812298,2.776802786,-2.299996987,-4.008543119,-0.586730399,Elastic
1.230685139,3,-1.24E-06,-0.00122228,,,,,,1.557030242,0.02229835,-28.46325784,-52.29112947,1.483990876,Failure
1.234370687,2.325737111,1.39707E-05,-0.001160758,,,,,,1.561773858,1.733989955,-9.618274666,-22.71616763,-0.379684762,Failure
1.243424494,1.754004936,2.7289E-05,-0.001008179,,,,,,1.566720582,0.573014492,-22.46966804,-42.96149135,0.86683069,Failure
1.243424494,1.754004936,2.7289E-05,-0.001008179,,,,,,1.567762847,0.736504663,-20.68135358,-40.16671643,0.689211947,Failure
1.2499677,2.802785958,2.07086E-06,-0.001217333,,,,,,1.5689245,1.780875407,-9.084185747,-21.863974,-0.425129572,Failure
1.2499677,2.802785958,2.07086E-06,-0.001217333,,,,,,1.569462942,0.951761091,-18.3151388,-36.45975445,0.459663955,Failure
1.255918465,1.525579054,3.07616E-05,-0.000921905,,,,,,1.570906003,0.267060721,-25.79433617,-48.14025264,1.216068532,Failure
1.255918465,1.525579054,3.07616E-05,-0.000921905,,,,,,1.571061424,1.122627565,-16.426417,-33.49306021,0.277414054,Failure
1.257105962,1.269654021,3.21993E-05,-0.000808723,,,,,,1.572201516,1.461545919,-12.65180673,-27.53759463,-0.089687382,Failure
1.257105962,1.269654021,3.21993E-05,-0.000808723,,,,,,1.573555954,0.104594559,-27.55286364,-50.87149435,1.407226182,Failure
1.258092656,1.053418609,3.14385E-05,-0.00069964,,,,,,1.574397011,2.506489343,-3.157411098,-8.846985051,-0.908010481,Elastic
1.258092656,1.053418609,3.14385E-05,-0.00069964,,,,,,1.578960585,1.64031805,-10.65110228,-24.36235648,-0.27815065,Failure
1.263103357,0.837214531,2.88535E-05,-0.000578471,,,,,,1.579041084,2.097316021,-5.550190438,-16.18734925,-0.727110206,Failure
1.263103357,0.837214531,2.88535E-05,-0.000578471,,,,,,1.583758681,0.446000053,-23.83437398,-45.08541327,1.025579687,Failure
1.266684954,0.628999726,2.44314E-05,-0.000450615,,,,,,1.584673569,0.392900971,-24.41117659,-45.9835373,1.086784581,Failure
1.266684954,0.628999726,2.44314E-05,-0.000450615,,,,,,1.586685279,2.824168798,-2.223859758,-3.155763659,-0.487159739,Elastic
1.268289449,0.41715338,1.79819E-05,-0.000309511,,,,,,1.588359509,1.313664555,-14.28456855,-30.11848799,0.080343716,Failure
1.268289449,0.41715338,1.79819E-05,-0.000309511,,,,,,1.588633844,1.254088281,-14.94802327,-31.16468866,0.146816332,Failure
1.273935724,0.208173038,9.84425E-06,-0.000159622,,,,,,1.594629191,2.981364053,-1.801805647,-0.335272081,-0.062368838,Elastic
1.273935724,0.208173038,9.84425E-06,-0.000159622,,,,,,1.597265884,2.668699796,-2.698960923,-5.93291006,-0.755443024,Elastic
1.278547976,2.438760679,1.13125E-05,-0.001179533,,,,,,1.600872086,2.622767804,-2.842282174,-6.750468826,-0.807212802,Elastic
1.278547976,2.438760679,1.13125E-05,-0.001179533,,,,,,1.604327227,2.912584621,-2.017412656,-1.570679036,-0.268160501,Elastic
1.283211079,1.877850109,2.58756E-05,-0.001048478,,,,,,1.612502,1.860242983,-8.160841275,-20.38864077,-0.498984941,Failure
1.283211079,1.877850109,2.58756E-05,-0.001048478,,,,,,1.61427869,2.434591128,-3.398151018,-10.09936922,-0.922132375,Elastic
1.283333333,0,0,0,,,,,,1.629296294,0.630081994,-21.77585045,-41.86379198,0.863403066,Failure
1.285671737,1.999343904,2.31813E-05,-0.001084299,,,,,,1.629480901,0.472849926,-23.48931718,-44.53464755,1.042106313,Failure
1.286431183,2.616513447,6.49723E-06,-0.001202411,,,,,,1.629758121,2.053231295,-5.994393533,-16.90665806,-0.684631562,Failure
1.286431183,2.616513447,6.49723E-06,-0.001202411,,,,,,1.630021651,0.366634108,-24.64351686,-46.33067655,1.164885451,Failure
1.288132395,2.120837698,2.01738E-05,-0.001116009,,,,,,1.631432986,0.210386174,-26.3378789,-48.9627036,1.349174607,Failure
1.290593053,2.242331493,1.69325E-05,-0.00114358,,,,,,1.632045638,2.693583875,-2.677094276,-5.479765907,-0.715612697,Elastic
1.290593053,2.242331493,1.69325E-05,-0.00114358,,,,,,1.632289719,2.178227707,-4.626707531,-14.69237376,-0.800096161,Failure
1.291899928,2.901392979,-1.28E-07,-0.001220471,,,,,,1.63271594,1.063058401,-17.01917813,-34.4194704,0.38587663,Failure
1.291899928,2.901392979,-1.28E-07,-0.001220471,,,,,,1.635440223,1.227385816,-15.19510791,-31.55214414,0.202796077,Failure
1.318534271,1.65577666,3.085E-05,-0.000972024,,,,,,1.638121344,1.34138639,-13.92381657,-29.54842682,0.075886529,Failure
1.318534271,1.65577666,3.085E-05,-0.000972024,,,,,,1.639028926,2.594990301,-2.960059908,-7.233812258,-0.834600523,Elastic
1.319721768,1.399851626,3.36319E-05,-0.000867795,,,,,,1.643309984,1.513514514,-11.9955909,-26.49934888,-0.118605983,Failure
1.320808863,1.163771404,3.39411E-05,-0.0007562,,,,,,1.6454174,2.312541167,-3.706680277,-12.28242541,-0.903262414,Elastic
1.321795558,0.947535992,3.21455E-05,-0.000641246,,,,,,1.646440381,2.224111218,-4.110392444,-13.85706461,-0.832961196,Failure
1.321795558,0.947535992,3.21455E-05,-0.000641246,,,,,,1.652464651,2.776802786,-2.487134383,-3.993604166,-0.573660797,Elastic
1.326091706,0.735326551,2.84488E-05,-0.000516801,,,,,,1.657842627,2.023079062,-6.306351247,-17.41116045,-0.653671755,Failure
1.326091706,0.735326551,2.84488E-05,-0.000516801,,,,,,1.672115275,2.479053499,-3.299943603,-9.266339755,-0.900261868,Elastic
1.327696202,0.523480205,2.26538E-05,-0.000381359,,,,,,1.674478369,0.39297124,-24.30517975,-45.7894982,1.182480229,Failure
1.328363411,2.715120468,3.92035E-06,-0.001210727,,,,,,1.674852507,0.446087976,-23.72732382,-44.89096318,1.120590066,Failure
1.331321587,0.313066861,1.49504E-05,-0.000235939,,,,,,1.675285019,2.891171201,-2.258467914,-1.951861232,-0.318322674,Elastic
1.333832156,3,-2.21E-06,-0.001220783,,,,,,1.678738492,2.693583875,-2.743875204,-5.466519402,-0.704602754,Elastic
1.333832156,3,-2.21E-06,-0.001220783,,,,,,1.682336159,1.253709287,-14.85155285,-31.00909893,0.202525543,Failure
1.333832156,3,-2.21E-06,-0.001220783,,,,,,1.682417775,2.609538165,-2.960896765,-6.951527036,-0.803391138,Elastic
1.334770341,2.355355061,1.42175E-05,-0.001164963,,,,,,1.685291614,1.308133588,-14.24162726,-30.0484753,0.139940099,Failure
1.334770341,2.355355061,1.42175E-05,-0.001164963,,,,,,1.68877175,2.977877083,-2.112217308,-0.397836114,-0.071426575,Elastic
1.336967862,0.104086519,5.41967E-06,-8.10E-05,,,,,,1.690579755,0.736575221,-20.54221516,-39.92419139,0.801805787,Failure
1.336967862,0.104086519,5.41967E-06,-8.10E-05,,,,,,1.690936124,0.267060721,-25.65194123,-47.87476317,1.349537338,Failure
1.342653549,2.533107829,8.99867E-06,-0.001192023,,,,,,1.691221178,0.104594559,-27.41193613,-50.60283215,1.544528961,Failure
1.370295639,2.813727489,1.28583E-06,-0.001216204,,,,,,1.691797871,2.776802786,-2.560835501,-3.987981115,-0.565174846,Elastic
1.381150076,1.785974265,3.01755E-05,-0.001017427,,,,,,1.692005928,0.573086468,-22.3247895,-42.70291949,0.990913189,Failure
1.381150076,1.785974265,3.01755E-05,-0.001017427,,,,,,1.692279849,0.951831649,-18.17953649,-36.23095445,0.558284954,Failure
1.381150076,1.785974265,3.01755E-05,-0.001017427,,,,,,1.69634677,1.122699541,-16.28863325,-33.26675093,0.364442553,Failure
1.381150076,1.785974265,3.01755E-05,-0.001017427,,,,,,1.701535641,2.662199747,-2.853326654,-6.015260411,-0.739470077,Elastic
1.381150076,1.785974265,3.01755E-05,-0.001017427,,,,,,1.708507671,0.819400132,-19.61502089,-38.4726212,0.72390234,Failure
1.381150076,1.785974265,3.01755E-05,-0.001017427,,,,,,1.708665259,2.491308357,-3.284506417,-9.030493446,-0.889226154,Elastic
1.381150076,1.785974265,3.01755E-05,-0.001017427,,,,,,1.708870112,0.865290312,-19.11163162,-37.68607177,0.671464484,Failure
1.382337573,1.530049232,3.43482E-05,-0.000922232,,,,,,1.709233598,0.02229835,-28.28063453,-51.93897796,1.665565969,Failure
1.38352507,1.274124198,3.60043E-05,-0.000809458,,,,,,1.710654386,1.440613829,-12.73780727,-27.67491036,-0.002346578,Failure
1.38352507,1.274124198,3.60043E-05,-0.000809458,,,,,,1.710776685,1.955881361,-7.006527341,-18.54084775,-0.583116823,Failure
1.383610734,1.90746806,2.75186E-05,-0.001056317,,,,,,1.712394093,2.321178359,-3.63581715,-12.05146838,-0.902829884,Elastic
1.383610734,1.90746806,2.75186E-05,-0.001056317,,,,,,1.714618239,2.891171201,-2.357485943,-1.950313521,-0.312928539,Elastic
1.384511765,1.057888787,3.51951E-05,-0.000700758,,,,,,1.714685584,1.619798375,-10.74012948,-24.5091428,-0.212669765,Failure
1.385498459,0.841653375,3.22327E-05,-0.000580021,,,,,,1.722354283,2.148080752,-4.877488532,-15.10366104,-0.768390961,Failure
1.385498459,0.841653375,3.22327E-05,-0.000580021,,,,,,1.728385663,0.289246647,-25.36591376,-47.4159254,1.365825884,Failure
1.385498459,0.841653375,3.22327E-05,-0.000580021,,,,,,1.730226152,0.550542683,-22.52503858,-43.00304533,1.056987402,Failure
1.385498459,0.841653375,3.22327E-05,-0.000580021,,,,,,1.735464604,2.977877083,-2.257419737,-0.397775919,-0.069825506,Elastic
1.385498459,0.841653375,3.22327E-05,-0.000580021,,,,,,1.735851062,1.14487396,-15.99765376,-32.80635624,0.36714835,Failure
1.385498459,0.841653375,3.22327E-05,-0.000580021,,,,,,1.737338053,1.707447165,-9.740752846,-22.91995126,-0.304701502,Failure
1.386071392,2.028961854,2.44526E-05,-0.001091123,,,,,,1.739152675,2.202549522,-4.265440144,-14.11305862,-0.811549832,Failure
1.386071392,2.028961854,2.44526E-05,-0.001091123,,,,,,1.744488694,1.754332616,-9.209178155,-22.07253147,-0.356277969,Failure
1.387102954,0.629807029,2.72019E-05,-0.000450289,,,,,,1.748226998,1.839723308,-8.256900694,-20.55024135,-0.451204122,Failure
1.388532049,2.150455648,2.10527E-05,-0.001121813,,,,,,1.748944078,2.333433217,-3.608415427,-11.78236546,-0.896894808,Elastic
1.388532049,2.150455648,2.10527E-05,-0.001121813,,,,,,1.750389772,1.412602267,-13.00552168,-28.09759174,0.050580127,Failure
1.38870745,0.417960684,2.00459E-05,-0.000309465,,,,,,1.755693678,2.112286738,-5.238819967,-15.69086624,-0.733070277,Failure
1.38870745,0.417960684,2.00459E-05,-0.000309465,,,,,,1.768273872,0.13021622,-27.04003142,-49.99080602,1.605788523,Failure
1.390992707,2.271949443,1.74063E-05,-0.001148356,,,,,,1.771185064,2.824168798,-2.614292257,-3.138273391,-0.452071513,Elastic
1.390992707,2.271949443,1.74063E-05,-0.001148356,,,,,,1.77127785,0.710838524,-20.72906729,-40.19520706,0.910882728,Failure
1.390992707,2.271949443,1.74063E-05,-0.001148356,,,,,,1.773394402,0.978824533,-17.78855107,-35.60618627,0.595698442,Failure
1.390992707,2.271949443,1.74063E-05,-0.001148356,,,,,,1.782541524,2.217097385,-4.080226121,-13.80532738,-0.841323545,Failure
1.390992707,2.271949443,1.74063E-05,-0.001148356,,,,,,1.783507465,2.776802786,-2.726244998,-3.974019164,-0.537622914,Elastic
1.394353725,0.208980342,1.10028E-05,-0.000159892,,,,,,1.785723195,2.492074821,-3.319489963,-8.97225293,-0.852950621,Elastic
1.398875915,2.44970221,1.18707E-05,-0.0011796,,,,,,1.787838853,2.578054339,-3.13203952,-7.457479175,-0.789163715,Elastic
1.4,0,0,0,,,,,,1.788827012,2.912584621,-2.507169229,-1.565881039,-0.247026621,Elastic
1.4,0,0,0,,,,,,1.789600994,0.396620417,-24.12615158,-45.46847195,1.306172827,Failure
1.4,0,0,0,,,,,,1.789916161,0.441365,-23.63987097,-44.71408065,1.252276051,Failure
1.406759122,2.627454978,6.34214E-06,-0.001201848,,,,,,1.796295497,2.002146971,-6.413124997,-17.59094595,-0.618054968,Failure
1.406759122,2.627454978,6.34214E-06,-0.001201848,,,,,,1.801755605,1.252120062,-14.72975226,-30.81044147,0.281402969,Failure
1.412227867,2.91233451,-1.33E-06,-0.001218832,,,,,,1.802711372,2.750365362,-2.807115944,-4.436540904,-0.575016716,Elastic
1.412227867,2.91233451,-1.33E-06,-0.001218832,,,,,,1.80298078,1.578095065,-11.10350916,-25.08901974,-0.12564374,Failure
1.429720098,3,-3.30E-06,-0.001219141,,,,,,1.803943399,2.622415508,-3.059527718,-6.679343698,-0.741050184,Elastic
1.444953379,1.660246837,3.42791E-05,-0.000971983,,,,,,1.804245227,1.297966113,-14.21715108,-30.00468883,0.225353711,Failure
1.444953379,1.660246837,3.42791E-05,-0.000971983,,,,,,1.805723411,0.152402146,-26.7535142,-49.5291713,1.624012222,Failure
1.446140876,1.404321804,3.7432E-05,-0.000868158,,,,,,1.807097016,0.314453387,-24.99596187,-46.80899576,1.426507224,Failure
1.446509707,0.736133854,3.15473E-05,-0.000516268,,,,,,1.807842566,2.130667905,-4.988358551,-15.28800529,-0.746902961,Failure
1.446509707,0.736133854,3.15473E-05,-0.000516268,,,,,,1.808575366,0.524336178,-22.71553552,-43.27237756,1.17298332,Failure
1.447227972,1.168241581,3.78208E-05,-0.000756982,,,,,,1.809498074,0.68829474,-20.92913486,-40.49558286,0.977007678,Failure
1.448114202,0.524287508,2.51436E-05,-0.000381108,,,,,,1.812898694,1.000998952,-17.49716385,-35.14395225,0.602595859,Failure
1.448214666,0.95200617,3.58666E-05,-0.00064245,,,,,,1.816861905,2.37002486,-3.545423193,-11.05713219,-0.86964983,Elastic
1.448214666,0.95200617,3.58666E-05,-0.00064245,,,,,,1.817892019,2.181009783,-4.435729698,-14.39377994,-0.787832154,Failure
1.44869135,2.726061999,3.31813E-06,-0.001209676,,,,,,1.81801817,1.167071638,-15.65465184,-32.26003375,0.400392833,Failure
1.451739588,0.313874165,1.66214E-05,-0.000236008,,,,,,1.822265257,0.026470592,-28.09572105,-51.59404686,1.800089028,Failure
1.45509828,2.366296592,1.5084E-05,-0.001165129,,,,,,1.824324357,2.981364053,-2.519790802,-0.335075564,-0.055788916,Elastic
1.45509828,2.366296592,1.5084E-05,-0.001165129,,,,,,1.826532411,0.815269413,-19.52121599,-38.298866,0.841431802,Failure
1.457385863,0.104893823,6.062E-06,-8.14E-05,,,,,,1.826962668,0.869746099,-18.92328102,-37.36691393,0.775655889,Failure
1.457385863,0.104893823,6.062E-06,-8.14E-05,,,,,,1.829696209,1.38212107,-13.25065498,-28.48241339,0.13406208,Failure
1.462981488,2.54404936,9.12138E-06,-0.001191569,,,,,,1.840224781,2.017630936,-6.195011014,-17.24279688,-0.626348213,Failure
1.478590761,1.880801016,3.04301E-05,-0.001046687,,,,,,1.842716166,1.550083503,-11.36587905,-25.50567046,-0.071491961,Failure
1.478590761,1.880801016,3.04301E-05,-0.001046687,,,,,,1.844738556,1.851893184,-8.01703443,-20.17322692,-0.437544878,Failure
1.481051419,2.00229481,2.71694E-05,-0.001082371,,,,,,1.859882224,2.295676215,-3.672348507,-12.36125474,-0.857908302,Elastic
1.483512076,2.123788604,2.35151E-05,-0.001113949,,,,,,1.861264565,2.700159137,-2.981604054,-5.304179328,-0.619504878,Elastic
1.485972734,2.245282399,1.95563E-05,-0.001141386,,,,,,1.866721975,0.052807724,-27.75474787,-51.04277603,1.823307785,Failure
1.485972734,2.245282399,1.95563E-05,-0.001141386,,,,,,1.866885208,0.208661772,-26.06770472,-48.43807293,1.629014645,Failure
1.490623578,2.82466902,2.22456E-07,-0.001214638,,,,,,1.867623227,1.683132681,-9.863612538,-23.12241513,-0.225372087,Failure
1.490623578,2.82466902,2.22456E-07,-0.001214638,,,,,,1.869858827,0.630829405,-21.48173328,-41.33453452,1.111200166,Failure
1.507273091,0.841723335,3.56365E-05,-0.000578816,,,,,,1.871904017,0.788507463,-19.75844825,-38.65561262,0.919960509,Failure
1.507273091,0.841723335,3.56365E-05,-0.000578816,,,,,,1.873858603,0.896069571,-18.57796482,-36.81730772,0.78881649,Failure
1.507520955,0.630614333,3.00738E-05,-0.000449817,,,,,,1.876111824,1.738790864,-9.237169021,-22.12517005,-0.291843676,Failure
1.507520955,0.630614333,3.00738E-05,-0.000449817,,,,,,1.87758208,1.055844886,-16.81306744,-34.06378403,0.589959955,Failure
1.508115809,2.91233451,-2.30E-06,-0.001217038,,,,,,1.878729695,2.912584621,-2.727112032,-1.563679987,-0.229935948,Elastic
1.508756681,1.534519409,3.80639E-05,-0.000922202,,,,,,1.888667839,1.867377149,-7.801099758,-19.83033945,-0.443799436,Failure
1.508756681,1.534519409,3.80639E-05,-0.000922202,,,,,,1.889660845,2.265276668,-3.750405967,-12.86783883,-0.850021327,Elastic
1.50912545,0.418767987,2.21902E-05,-0.00030932,,,,,,1.894475578,2.455061727,-3.441693629,-9.55145584,-0.807204107,Elastic
1.50912545,0.418767987,2.21902E-05,-0.00030932,,,,,,1.901071808,1.488404931,-11.97927916,-26.47581137,0.038201407,Failure
1.509944179,1.278594376,3.99512E-05,-0.00080988,,,,,,1.911123385,0.026337132,-27.98509734,-51.37189264,1.912906538,Failure
1.509944179,1.278594376,3.99512E-05,-0.00080988,,,,,,1.914377542,2.113501149,-5.083730135,-15.45716797,-0.697879033,Failure
1.510930873,1.062358964,3.90964E-05,-0.000701605,,,,,,1.914793497,1.649879878,-10.17861463,-23.62514022,-0.161630054,Failure
1.510930873,1.062358964,3.90964E-05,-0.000701605,,,,,,1.916835164,2.028511778,-6.003796012,-16.94367597,-0.612621417,Failure
1.514771725,0.209787645,1.22122E-05,-0.000160111,,,,,,1.9173985,0.814451624,-19.41838182,-38.11316517,0.934627577,Failure
1.514771725,0.209787645,1.22122E-05,-0.000160111,,,,,,1.91892283,0.867537046,-18.83450267,-37.20477122,0.869069912,Failure
1.515723255,1.765628729,3.41491E-05,-0.001008447,,,,,,1.922619543,2.891171201,-2.843369778,-1.942645926,-0.266952822,Elastic
1.515723255,1.765628729,3.41491E-05,-0.001008447,,,,,,1.92284302,2.15590824,-4.617991989,-14.70495997,-0.732986767,Failure
1.516666667,0,0,0,,,,,,1.926894442,0.313920007,-24.85132398,-46.52801125,1.570510728,Failure
1.519203854,2.460643742,1.23051E-05,-0.001179234,,,,,,1.927928588,0.151858046,-26.60522276,-49.23456799,1.776140681,Failure
1.519203854,2.460643742,1.23051E-05,-0.001179234,,,,,,1.928260711,1.757172031,-8.9689658,-21.70099162,-0.292514986,Failure
1.52560804,3,-4.59E-06,-0.001217222,,,,,,1.928372792,0.523802798,-22.57265152,-43.00298113,1.309560551,Failure
1.527087061,2.638396509,5.98794E-06,-0.001200839,,,,,,1.928513194,2.530176837,-3.328457739,-8.225682229,-0.737690313,Elastic
1.527087061,2.638396509,5.98794E-06,-0.001200839,,,,,,1.931703251,0.68775064,-20.78452822,-40.23001092,1.108718004,Failure
1.550078308,2.339629548,1.70137E-05,-0.001158681,,,,,,1.939564292,0.994782808,-17.40881725,-34.98027443,0.72511538,Failure
1.568284339,0.736203814,3.47716E-05,-0.00051509,,,,,,1.940616067,2.981364053,-2.842762832,-0.33490222,-0.049834247,Elastic
1.568532203,0.525094812,2.77253E-05,-0.000380728,,,,,,1.94182345,2.864733777,-2.903174698,-2.409340144,-0.314490196,Elastic
1.568532203,0.525094812,2.77253E-05,-0.000380728,,,,,,1.942188136,1.160977968,-15.56688199,-32.10652121,0.504623638,Failure
1.569019289,2.73700353,2.46504E-06,-0.001208147,,,,,,1.944562415,0.395930475,-23.93983076,-45.11065677,1.488819539,Failure
1.569019289,2.73700353,2.46504E-06,-0.001208147,,,,,,1.94461774,2.574538005,-3.269960606,-7.452968196,-0.693370551,Elastic
1.569989297,0.952076129,3.95208E-05,-0.000641005,,,,,,1.944877582,0.440675057,-23.45420282,-44.35966917,1.433058141,Failure
1.572157588,0.314681468,1.83596E-05,-0.000235999,,,,,,1.953866175,1.376027399,-13.16239858,-28.33772873,0.220175946,Failure
1.572157588,0.314681468,1.83596E-05,-0.000235999,,,,,,1.954285476,1.912353725,-7.232844123,-18.92531048,-0.472081486,Failure
1.572559984,1.408791981,4.13711E-05,-0.000868158,,,,,,1.956544067,2.227430131,-3.853559494,-13.45875735,-0.809371034,Failure
1.572559984,1.408791981,4.13711E-05,-0.000868158,,,,,,1.960277746,2.405673852,-3.547696089,-10.35510847,-0.780686524,Elastic
1.57364708,1.172711759,4.18458E-05,-0.000757448,,,,,,1.962373032,1.244237724,-14.61554867,-30.61601692,0.406491572,Failure
1.57364708,1.172711759,4.18458E-05,-0.000757448,,,,,,1.962444534,1.673474716,-9.855146096,-23.11330872,-0.169757492,Failure
1.574052529,0.104893823,6.66748E-06,-8.12E-05,,,,,,1.964862655,1.290083775,-14.1027208,-29.81260179,0.344908154,Failure
1.576031446,1.975627766,3.00592E-05,-0.001073167,,,,,,1.965331536,0.129559696,-26.79876998,-49.51098273,1.851742937,Failure
1.576031446,1.975627766,3.00592E-05,-0.001073167,,,,,,1.967423151,1.725108686,-9.274496736,-22.19020088,-0.234784998,Failure
1.578492104,2.09712156,2.61588E-05,-0.001105622,,,,,,1.968809195,2.788574961,-3.015994949,-3.743646924,-0.433997001,Elastic
1.579526557,1.639901301,3.85384E-05,-0.000962132,,,,,,1.969381765,1.543867359,-11.27855325,-25.36858375,0.003754099,Failure
1.580952761,2.218615355,2.18903E-05,-0.001133947,,,,,,1.970016948,2.663146043,-3.16346842,-5.918555817,-0.5925876,Elastic
1.580952761,2.218615355,2.18903E-05,-0.001133947,,,,,,1.970026984,0.709605534,-20.49787128,-39.77107121,1.123670487,Failure
1.583309427,2.554990891,9.07735E-06,-0.001190639,,,,,,1.977525585,0.970747522,-17.62576185,-35.30871824,0.792712849,Failure
1.583309427,2.554990891,9.07735E-06,-0.001190639,,,,,,1.990056367,2.375274305,-3.606578031,-10.8445319,-0.76417305,Elastic
1.58651152,2.82466902,-5.67E-07,-0.001212661,,,,,,2.001023609,1.844754703,-7.915359791,-20.02400308,-0.369797994,Failure
1.604003751,2.91233451,-3.44E-06,-0.001214941,,,,,,2.005552261,0.288012604,-25.03120085,-46.76293579,1.700936702,Failure
1.61316394,1.860455479,3.43492E-05,-0.001037839,,,,,,2.00739275,0.549308641,-22.19513617,-42.38310633,1.370371972,Failure
1.614183881,2.433976698,1.39645E-05,-0.001173289,,,,,,2.00952214,1.563743225,-11.00864408,-24.94199944,0.001182178,Failure
1.621495982,3,-6.08E-06,-0.001214989,,,,,,2.023134088,1.130775478,-15.79464871,-32.44795882,0.613464571,Failure
1.629047722,0.841793294,3.91562E-05,-0.000577391,,,,,,2.024146326,0.022185926,-27.88504279,-51.14560491,2.064663368,Failure
1.629047722,0.841793294,3.91562E-05,-0.000577391,,,,,,2.024538674,2.977877083,-3.050752917,-0.397487877,-0.053115154,Elastic
1.629295587,0.630684292,3.30548E-05,-0.000448698,,,,,,2.02697724,2.006335052,-6.127371641,-17.15630751,-0.551271842,Failure
1.629543451,0.419575291,2.44148E-05,-0.000309065,,,,,,2.032101379,2.490525858,-3.449681662,-8.837526951,-0.669862035,Elastic
1.629543451,0.419575291,2.44148E-05,-0.000309065,,,,,,2.033298119,0.8159213,-19.25452948,-37.82012204,1.055503115,Failure
1.629543451,0.419575291,2.44148E-05,-0.000309065,,,,,,2.034013343,1.817745118,-8.172590528,-20.43817211,-0.319752788,Failure
1.629543451,0.419575291,2.44148E-05,-0.000309065,,,,,,2.03415774,2.312466998,-3.657378962,-11.8443427,-0.75182718,Elastic
1.629543451,0.419575291,2.44148E-05,-0.000309065,,,,,,2.034582187,0.860639504,-18.76226756,-37.05660057,0.99724433,Failure
1.629543451,0.419575291,2.44148E-05,-0.000309065,,,,,,2.037672798,1.398503785,-12.80228867,-27.76638604,0.24604863,Failure
1.631438392,0.209787645,1.33873E-05,-0.000159693,,,,,,2.042330697,0.104067214,-26.97531034,-49.73423521,1.983619722,Failure
1.632705504,1.062428924,4.29482E-05,-0.000699895,,,,,,2.042955209,0.265714255,-25.22438701,-47.03870802,1.776829338,Failure
1.633333333,0,0,0,,,,,,2.045716483,0.571163535,-21.90834832,-41.92144534,1.388333674,Failure
1.636363287,1.283064553,4.40422E-05,-0.000809937,,,,,,2.047335823,2.946492954,-3.092427822,-0.958023087,-0.119630472,Elastic
1.636363287,1.283064553,4.40422E-05,-0.000809937,,,,,,2.049623429,0.733343852,-20.13665358,-39.17989487,1.182521256,Failure
1.636363287,1.283064553,4.40422E-05,-0.000809937,,,,,,2.051219245,2.543187441,-3.393842688,-7.944618125,-0.618535635,Elastic
1.636363287,1.283064553,4.40422E-05,-0.000809937,,,,,,2.052761596,2.826976774,-3.11630229,-3.065918908,-0.33027973,Elastic
1.636363287,1.283064553,4.40422E-05,-0.000809937,,,,,,2.054323859,2.664730857,-3.245133935,-5.8705715,-0.522297298,Elastic
1.636363287,1.283064553,4.40422E-05,-0.000809937,,,,,,2.055646587,0.943102905,-17.82766189,-35.60015431,0.907176622,Failure
1.64332986,1.514173873,4.25185E-05,-0.000911512,,,,,,2.05684949,2.084814915,-5.247198857,-15.74004434,-0.626200115,Failure
1.645058335,2.312962504,1.9133E-05,-0.001151737,,,,,,2.059676322,0.391256204,-23.84269959,-44.89963167,1.636811608,Failure
1.647415001,2.649338041,5.41689E-06,-0.001199308,,,,,,2.06005046,0.44437294,-23.26654654,-44.01082439,1.569190186,Failure
1.647415001,2.649338041,5.41689E-06,-0.001199308,,,,,,2.06109538,1.106740192,-16.00920233,-32.77413782,0.680472309,Failure
1.647415001,2.649338041,5.41689E-06,-0.001199308,,,,,,2.065314969,2.127222007,-4.79154452,-15.00755706,-0.656525053,Failure
1.647415001,2.649338041,5.41689E-06,-0.001199308,,,,,,2.066686143,2.205253405,-3.966300692,-13.66852585,-0.735796856,Failure
1.647415001,2.649338041,5.41689E-06,-0.001199308,,,,,,2.067451874,2.454438256,-3.516352601,-9.447377159,-0.652146566,Elastic
1.647415001,2.649338041,5.41689E-06,-0.001199308,,,,,,2.077124903,1.666153087,-9.787613746,-23.01026481,-0.099143995,Failure
1.647415001,2.649338041,5.41689E-06,-0.001199308,,,,,,2.077813174,1.418379651,-12.52638962,-27.33027835,0.245362568,Failure
1.650296433,1.745283193,3.83631E-05,-0.000998855,,,,,,2.081318799,1.709648614,-9.300844055,-22.23802196,-0.155626486,Failure
1.650296433,1.745283193,3.83631E-05,-0.000998855,,,,,,2.081593624,1.234115634,-14.56686231,-30.52306148,0.513737529,Failure
1.664907231,2.73700353,1.92276E-06,-0.001205953,,,,,,2.08454908,1.288539934,-13.95844578,-29.57241059,0.438120802,Failure
1.664907231,2.73700353,1.92276E-06,-0.001205953,,,,,,2.088747554,2.830790942,-3.167219712,-2.997020717,-0.305433357,Elastic
1.673472131,2.070454516,2.8991E-05,-0.001096802,,,,,,2.089357709,1.581636381,-10.70487708,-24.46179546,0.023759832,Failure
1.673472131,2.070454516,2.8991E-05,-0.001096802,,,,,,2.090055109,2.95102079,-3.180930438,-0.877433309,-0.102665193,Elastic
1.675932789,2.191948311,2.4419E-05,-0.001126005,,,,,,2.090309817,2.668545024,-3.273644268,-5.79704264,-0.486960779,Elastic
1.675932789,2.191948311,2.4419E-05,-0.001126005,,,,,,2.093938532,2.547715276,-3.412785874,-7.848818483,-0.571506056,Elastic
1.678289454,2.528323847,1.04101E-05,-0.001185175,,,,,,2.095052499,1.966322257,-6.479189534,-17.73324891,-0.467505616,Failure
1.678289454,2.528323847,1.04101E-05,-0.001185175,,,,,,2.102339931,0.209325449,-25.75765001,-47.82182584,1.92630451,Failure
1.682399462,2.82466902,-1.50E-06,-0.001210352,,,,,,2.102412137,2.35265186,-3.683588672,-11.13086982,-0.659314354,Elastic
1.682399462,2.82466902,-1.50E-06,-0.001210352,,,,,,2.104077732,0.364785612,-24.07162855,-45.22625889,1.727320789,Failure
1.688824255,0.314681468,2.0064E-05,-0.00023535,,,,,,2.105544943,0.470317101,-22.92514792,-43.4591652,1.592115577,Failure
1.688824255,0.314681468,2.0064E-05,-0.00023535,,,,,,2.108137394,0.626317245,-21.22744158,-40.83900331,1.391830071,Failure
1.69005897,0.736273773,3.81027E-05,-0.000513709,,,,,,2.109029963,1.785660241,-8.429048169,-20.8530394,-0.239957334,Failure
1.690306835,0.525164771,3.03962E-05,-0.000379704,,,,,,2.110159137,2.469387276,-3.518276595,-9.150817552,-0.594677254,Elastic
1.690306835,0.525164771,3.03962E-05,-0.000379704,,,,,,2.110664758,2.982404918,-3.242721615,-0.316234298,-0.036965833,Elastic
1.690719196,0.104893823,7.29467E-06,-8.10E-05,,,,,,2.117527929,2.510002714,-3.473593301,-8.474417519,-0.566909454,Elastic
1.691763929,0.952146088,4.32965E-05,-0.000639296,,,,,,2.120252644,1.048235987,-16.57645113,-33.64032199,0.820193117,Failure
1.695421711,1.172781718,4.58411E-05,-0.000755444,,,,,,2.126657851,1.205583108,-14.82257615,-30.91338906,0.593762902,Failure
1.695421711,1.172781718,4.58411E-05,-0.000755444,,,,,,2.128042234,1.939312672,-6.729395113,-18.13910273,-0.418829336,Failure
1.699891693,2.91233451,-4.77E-06,-0.001212501,,,,,,2.132200117,1.312134772,-13.63096224,-29.05408657,0.440509093,Failure
1.699891693,2.91233451,-4.77E-06,-0.001212501,,,,,,2.137608028,2.806466022,-3.236612422,-3.417164971,-0.307906513,Elastic
1.707133163,1.388446445,4.5922E-05,-0.000856673,,,,,,2.138387966,2.365244646,-3.68636234,-10.90760805,-0.615296905,Elastic
1.707133163,1.388446445,4.5922E-05,-0.000856673,,,,,,2.138815781,2.681037104,-3.303352319,-5.573242016,-0.431056781,Elastic
1.709163908,2.407309654,1.58169E-05,-0.001166819,,,,,,2.142152076,1.469258849,-11.87042597,-26.29559511,0.217177521,Failure
1.709163908,2.407309654,1.58169E-05,-0.001166819,,,,,,2.144488563,2.213967989,-3.880280237,-13.47957174,-0.680270294,Elastic
1.710604625,1.95528223,3.38736E-05,-0.001064389,,,,,,2.148779567,0.390793022,-23.73102627,-44.67441167,1.750816343,Failure
1.714099736,1.619555765,4.30231E-05,-0.000951666,,,,,,2.14987264,0.443207774,-23.16202519,-43.79789758,1.684038375,Failure
1.717383924,3,-7.80E-06,-0.001212399,,,,,,2.151971532,2.887007462,-3.260350403,-2.010004486,-0.193867035,Elastic
1.717383924,3,-7.80E-06,-0.001212399,,,,,,2.154765822,2.596811691,-3.393477095,-6.996903186,-0.473758614,Elastic
1.740038362,2.28629546,2.14559E-05,-0.001144257,,,,,,2.15999592,0.104067214,-26.82156728,-49.41603833,2.139135431,Failure
1.740038362,2.28629546,2.14559E-05,-0.001144257,,,,,,2.161994604,2.059360618,-5.396760178,-16.004006,-0.531342176,Failure
1.747737118,1.840109943,3.85247E-05,-0.001028296,,,,,,2.16298533,0.265714255,-25.06744714,-46.72007125,1.932577427,Failure
1.748105059,0.209787645,1.46017E-05,-0.00015922,,,,,,2.168677627,0.568301618,-21.77885757,-41.65686546,1.543083009,Failure
1.748105059,0.209787645,1.46017E-05,-0.00015922,,,,,,2.169332729,2.913444887,-3.298283509,-1.543450822,-0.148117427,Elastic
1.748324225,0.419046437,2.6618E-05,-0.000307788,,,,,,2.170161927,0.730538322,-20.00769496,-38.92607307,1.32628679,Failure
1.748324225,0.419046437,2.6618E-05,-0.000307788,,,,,,2.172044057,2.109702496,-4.869338494,-15.15579246,-0.576603447,Failure
1.75,0,0,0,,,,,,2.17268927,1.230449051,-14.47899228,-30.3693452,0.595348665,Failure
1.750822354,0.841863253,4.27884E-05,-0.000575719,,,,,,2.174637105,2.565043308,-3.439078433,-7.524707502,-0.468926537,Elastic
1.750822354,0.841863253,4.27884E-05,-0.000575719,,,,,,2.175276081,1.282576415,-13.89631211,-29.46129182,0.519049908,Failure
1.751070218,0.630754252,3.61317E-05,-0.000447396,,,,,,2.176185086,0.940297375,-17.69356332,-35.35142204,1.034870391,Failure
1.751070218,0.630754252,3.61317E-05,-0.000447396,,,,,,2.176349682,0.022185926,-27.68657634,-50.73082913,2.267632417,Failure
1.754046962,2.73700353,1.32059E-06,-0.001203583,,,,,,2.180464392,2.226560775,-3.852005077,-13.17101576,-0.641899376,Elastic
1.754046962,2.73700353,1.32059E-06,-0.001203583,,,,,,2.181721727,1.879641569,-7.309566395,-19.07369783,-0.316632617,Failure
1.754480136,1.062498883,4.69256E-05,-0.000697872,,,,,,2.184056525,1.103878276,-15.8687407,-32.52509267,0.797072497,Failure
1.754480136,1.062498883,4.69256E-05,-0.000697872,,,,,,2.189218139,0.812292267,-19.08596524,-37.4954458,1.234349445,Failure
1.755244466,2.612639056,6.79097E-06,-0.001192921,,,,,,2.190132162,2.98517822,-3.397377147,-0.266273484,-0.026607468,Elastic
1.755244466,2.612639056,6.79097E-06,-0.001192921,,,,,,2.190502206,0.85701047,-18.59295125,-36.73416295,1.172373453,Failure
1.759479494,1.277022597,4.81802E-05,-0.00080471,,,,,,2.199271391,1.406153359,-12.48972123,-27.2611644,0.352149326,Failure
1.759479494,1.277022597,4.81802E-05,-0.00080471,,,,,,2.2001453,2.448812704,-3.591839514,-9.449062627,-0.492998074,Elastic
1.770912816,2.165281267,2.71516E-05,-0.001117523,,,,,,2.20064135,0.287622428,-24.78041633,-46.25315941,1.953518862,Failure
1.770912816,2.165281267,2.71516E-05,-0.001117523,,,,,,2.200794086,2.736146017,-3.320134562,-4.622051838,-0.328701608,Elastic
1.770912816,2.165281267,2.71516E-05,-0.001117523,,,,,,2.201157043,2.027297273,-5.695030018,-16.49060803,-0.472748162,Failure
1.770912816,2.165281267,2.71516E-05,-0.001117523,,,,,,2.202909062,2.371535802,-3.702108244,-10.75361368,-0.521200645,Elastic
1.770912816,2.165281267,2.71516E-05,-0.001117523,,,,,,2.206018481,0.545465209,-21.97678292,-41.93973641,1.620428538,Failure
1.770912816,2.165281267,2.71516E-05,-0.001117523,,,,,,2.206352637,2.483026418,-3.552950449,-8.882303467,-0.468503405,Elastic
1.771539193,2.82466902,-2.50E-06,-0.001207866,,,,,,2.208422892,1.569650978,-10.67187632,-24.40716404,0.117195705,Failure
1.777903039,1.493828337,4.71742E-05,-0.000900214,,,,,,2.21475132,2.124651516,-4.608179343,-14.74505764,-0.565382201,Failure
1.777903039,1.493828337,4.71742E-05,-0.000900214,,,,,,2.219043953,2.930475682,-3.383885919,-1.24155939,-0.108219096,Elastic
1.784869612,1.724937656,4.28214E-05,-0.000988575,,,,,,2.222832563,1.124824899,-15.58015005,-32.06688771,0.801437204,Failure
1.784869612,1.724937656,4.28214E-05,-0.000988575,,,,,,2.228095146,1.773674839,-8.400024119,-20.81429179,-0.152454291,Failure
1.786118919,2.491624862,1.24638E-05,-0.001177415,,,,,,2.231139146,1.650649623,-9.747019444,-22.94796315,0.017705117,Failure
1.789031424,2.91233451,-6.17E-06,-0.001209883,,,,,,2.232025732,2.532021592,-3.504929174,-8.054805889,-0.411750387,Elastic
1.806523654,3,-9.60E-06,-0.001209631,,,,,,2.233704519,2.796046511,-3.336648811,-3.590026851,-0.251085883,Elastic
1.807385863,0.104893823,7.9428E-06,-8.07E-05,,,,,,2.234936546,2.668096657,-3.379627801,-5.772585069,-0.341002604,Elastic
1.807385863,0.104893823,7.9428E-06,-8.07E-05,,,,,,2.235333043,1.69414515,-9.260376045,-22.17856327,-0.040640888,Failure
1.807605029,0.314152615,2.1822E-05,-0.000234226,,,,,,2.235437465,2.264322209,-3.843030046,-12.43779147,-0.543946308,Elastic
1.80804531,2.05010898,3.26442E-05,-0.001088024,,,,,,2.235557807,1.381253932,-12.71387294,-27.60687705,0.417697067,Failure
1.80804531,2.05010898,3.26442E-05,-0.001088024,,,,,,2.237565013,0.129559696,-26.44311236,-48.77683072,2.210344564,Failure
1.809087609,0.524635918,3.3054E-05,-0.000378158,,,,,,2.246479977,2.047974907,-5.425788061,-16.06573631,-0.466413592,Failure
1.811833602,0.736343732,4.15358E-05,-0.000512099,,,,,,2.248908148,0.703114583,-20.20053289,-39.18182112,1.459238482,Failure
1.811833602,0.736343732,4.15358E-05,-0.000512099,,,,,,2.249500451,1.92708638,-6.711282805,-18.1255705,-0.329511157,Failure
1.81353856,0.952216048,4.71891E-05,-0.00063729,,,,,,2.2500248,2.094987272,-4.945149055,-15.29542192,-0.504604283,Failure
1.81353856,0.952216048,4.71891E-05,-0.00063729,,,,,,2.251065716,2.822483935,-3.35613248,-3.132204289,-0.215261778,Elastic
1.816993373,2.370610669,1.84851E-05,-0.001157677,,,,,,2.254807829,2.636328274,-3.412812184,-6.302880696,-0.334854428,Elastic
1.818537918,1.166739761,4.99784E-05,-0.000750004,,,,,,2.256406749,0.964256572,-17.31279286,-34.73292748,1.081714296,Failure
1.83024937,1.382404488,5.0142E-05,-0.000851233,,,,,,2.262855995,0.393651954,-23.54917643,-44.31875509,1.896780485,Failure
1.845177803,1.934936693,3.79594E-05,-0.001054821,,,,,,2.26377678,0.437805198,-23.06895134,-43.58094445,1.839141002,Failure
1.845177803,1.934936693,3.79594E-05,-0.001054821,,,,,,2.275221033,0.15146787,-26.15588754,-48.30688002,2.232952854,Failure
1.847867827,2.249596475,2.46592E-05,-0.001133738,,,,,,2.275403902,2.200760405,-3.975403002,-13.52280188,-0.52802833,Elastic
1.847867827,2.249596475,2.46592E-05,-0.001133738,,,,,,2.278972501,0.312089814,-24.41138454,-45.62992132,2.026315355,Failure
1.848672915,1.599210228,4.77296E-05,-0.000940514,,,,,,2.282230012,2.860155678,-3.40085777,-2.47616239,-0.161813394,Elastic
1.848672915,1.599210228,4.77296E-05,-0.000940514,,,,,,2.283291614,0.51919882,-22.15875027,-42.17013746,1.755546745,Failure
1.860678924,2.82466902,-3.62E-06,-0.001205011,,,,,,2.284994601,1.536013469,-10.9295833,-24.80794028,0.221319644,Failure
1.860678924,2.82466902,-3.62E-06,-0.001205011,,,,,,2.286249001,0.680278174,-20.40004026,-39.46698585,1.537683853,Failure
1.861876427,2.700304545,2.25122E-06,-0.001197583,,,,,,2.287536766,1.2290627,-14.32581792,-30.10522229,0.69796503,Failure
1.863073931,2.575940071,8.48948E-06,-0.001185652,,,,,,2.287679674,1.944504847,-6.475996832,-17.75483278,-0.319927618,Failure
1.863073931,2.575940071,8.48948E-06,-0.001185652,,,,,,2.289465431,0.026337132,-27.49217921,-50.34154967,2.416727306,Failure
1.866666667,0,0,0,,,,,,2.289715848,1.272973853,-13.83356339,-29.34075019,0.630222128,Failure
1.866666667,0,0,0,,,,,,2.293224253,2.724913077,-3.385339918,-4.80001961,-0.247045101,Elastic
1.866666667,0,0,0,,,,,,2.294004038,2.587130505,-3.471702802,-7.113899967,-0.305397187,Elastic
1.866885833,0.209258792,1.58398E-05,-0.000158291,,,,,,2.295182788,0.985203195,-17.02410539,-34.27206362,1.090670795,Failure
1.867105,0.418517584,2.88822E-05,-0.000306387,,,,,,2.295978023,2.346243765,-3.779702425,-11.09228055,-0.392947564,Elastic
1.867105,0.418517584,2.88822E-05,-0.000306387,,,,,,2.298239725,2.98517822,-3.563744727,-0.266364105,-0.019836097,Elastic
1.869850992,0.630225398,3.91949E-05,-0.000445552,,,,,,2.302138869,1.14649002,-15.22176853,-31.48853721,0.842239727,Failure
1.872596985,0.841933213,4.65267E-05,-0.000573771,,,,,,2.302619644,2.930475682,-3.487319517,-1.240995233,-0.083985766,Elastic
1.872596985,0.841933213,4.65267E-05,-0.000573771,,,,,,2.304979307,0.805430693,-19.00000549,-37.30572779,1.378776301,Failure
1.872596985,0.841933213,4.65267E-05,-0.000573771,,,,,,2.305117646,2.17577178,-4.068287955,-13.90614707,-0.505096213,Failure
1.872596985,0.841933213,4.65267E-05,-0.000573771,,,,,,2.306503636,0.858516114,-18.41071529,-36.39983154,1.29956007,Failure
1.872596985,0.841933213,4.65267E-05,-0.000573771,,,,,,2.309485804,1.790015363,-8.110860558,-20.35923809,-0.116646931,Failure
1.872596985,0.841933213,4.65267E-05,-0.000573771,,,,,,2.312360263,1.352463451,-12.91729958,-27.9113128,0.524476272,Failure
1.877596343,1.056456926,5.09903E-05,-0.00069226,,,,,,2.313833902,2.756297206,-3.391620613,-4.263314504,-0.210039948,Elastic
1.878171154,2.91233451,-7.74E-06,-0.001206886,,,,,,2.31681365,2.687200515,-3.409460704,-5.433154792,-0.23853626,Elastic
1.88012018,2.143292742,3.01608E-05,-0.001109115,,,,,,2.320532682,2.416096725,-3.690740684,-9.920457986,-0.329811402,Elastic
1.88012018,2.143292742,3.01608E-05,-0.001109115,,,,,,2.321281017,1.511114042,-11.14670143,-25.14507987,0.286425803,Failure
1.882310297,1.819764407,4.29609E-05,-0.001017967,,,,,,2.325094693,2.506729555,-3.569273332,-8.431087259,-0.287081632,Elastic
1.882310297,1.819764407,4.29609E-05,-0.001017967,,,,,,2.326740019,2.450310439,-3.643256362,-9.356298681,-0.303086052,Elastic
1.882595701,1.27098064,5.24483E-05,-0.000799056,,,,,,2.334167265,0.052344542,-27.15108394,-49.78136751,2.444240404,Failure
1.882595701,1.27098064,5.24483E-05,-0.000799056,,,,,,2.336321154,2.822483935,-3.419308392,-3.126444079,-0.154112317,Elastic
1.893948385,2.454925877,1.48636E-05,-0.001168748,,,,,,2.336628491,0.20683158,-25.47437102,-47.21330192,2.244045697,Failure
1.895663385,3,-1.16E-05,-0.001206473,,,,,,2.345288026,1.63493672,-9.751214303,-22.9516489,0.12399821,Failure
1.901019246,1.48778638,5.1424E-05,-0.000894519,,,,,,2.345316148,0.623419897,-20.93958691,-40.25784083,1.692701945,Failure
1.917252674,2.028120455,3.60522E-05,-0.001078778,,,,,,2.347665027,1.807433829,-7.871530616,-19.98131248,-0.109080336,Failure
1.919442791,1.70459212,4.75207E-05,-0.000977524,,,,,,2.34808133,2.7374231,-3.408204929,-4.578971681,-0.184150548,Elastic
1.919442791,1.70459212,4.75207E-05,-0.000977524,,,,,,2.349307003,0.778321366,-19.23356945,-37.63980977,1.471219039,Failure
1.919442791,1.70459212,4.75207E-05,-0.000977524,,,,,,2.349747338,2.610527904,-3.468556884,-6.706313084,-0.221477483,Elastic
1.919442791,1.70459212,4.75207E-05,-0.000977524,,,,,,2.350266643,1.68657069,-9.181339316,-22.0533902,0.05410556,Failure
1.919442791,1.70459212,4.75207E-05,-0.000977524,,,,,,2.35075888,2.699710538,-3.417020618,-5.215474927,-0.194484948,Elastic
1.919442791,1.70459212,4.75207E-05,-0.000977524,,,,,,2.350998379,2.041031717,-5.385054377,-16.02367218,-0.353890981,Failure
1.924822838,2.333911684,2.15031E-05,-0.001147614,,,,,,2.352535056,0.883382058,-18.06824851,-35.85070229,1.313142533,Failure
1.924822838,2.333911684,2.15031E-05,-0.001147614,,,,,,2.353714858,2.306728298,-3.873505226,-11.67931371,-0.318465246,Elastic
1.926166637,0.104364969,8.58106E-06,-8.01E-05,,,,,,2.353984474,2.080634088,-4.978051424,-15.37334592,-0.388473566,Failure
1.926166637,0.104364969,8.58106E-06,-8.01E-05,,,,,,2.358071311,1.038551408,-16.33698572,-33.18851374,1.07066773,Failure
1.926385803,0.313623761,2.36258E-05,-0.000233008,,,,,,2.360808477,1.961346126,-6.21049873,-17.34160093,-0.271000125,Failure
1.927868383,0.524107064,3.57804E-05,-0.000376447,,,,,,2.36269573,2.913444887,-3.519805533,-1.540773962,-0.078609204,Elastic
1.930614376,0.735814879,4.49539E-05,-0.000509926,,,,,,2.36517057,2.806584728,-3.426803796,-3.397648927,-0.139402536,Elastic
1.930614376,0.735814879,4.49539E-05,-0.000509926,,,,,,2.374815312,2.147108413,-4.274942871,-14.25821134,-0.400013533,Failure
1.936654767,0.946174091,5.11071E-05,-0.000631553,,,,,,2.378035168,0.02600741,-27.37823832,-50.08996629,2.539658175,Failure
1.936654767,0.946174091,5.11071E-05,-0.000631553,,,,,,2.378342189,2.621066122,-3.466930661,-6.522013969,-0.178942239,Elastic
1.941654125,1.160697805,5.42294E-05,-0.000744155,,,,,,2.37863108,1.452855579,-11.70131732,-26.00472943,0.421524156,Failure
1.953365577,1.376362532,5.44974E-05,-0.0008453,,,,,,2.379394948,2.982404918,-3.649330849,-0.315648064,-0.016866948,Elastic
1.954385168,1.912948169,4.16905E-05,-0.001044764,,,,,,2.383428602,2.281739672,-3.929346961,-12.06094277,-0.280751397,Elastic
1.957075192,2.22760795,2.7474E-05,-0.001125406,,,,,,2.38836399,1.605378363,-10.01996307,-23.3716434,0.200445919,Failure
1.967310885,2.91233451,-9.48E-06,-0.001203464,,,,,,2.389963997,2.50652696,-3.586820823,-8.403888548,-0.18325076,Elastic
1.967310885,2.91233451,-9.48E-06,-0.001203464,,,,,,2.391545147,2.89754568,-3.517396785,-1.819281959,-0.076244178,Elastic
1.968508389,2.787970035,-3.25E-06,-0.001199317,,,,,,2.394464389,0.803630664,-18.88980979,-37.08658067,1.486908263,Failure
1.969705892,2.663605561,3.52516E-06,-0.001190626,,,,,,2.395589576,1.707248324,-8.887887973,-21.58944743,0.060149119,Failure
1.970903396,2.539241086,1.05529E-05,-0.001177417,,,,,,2.396168112,0.855605934,-18.31152279,-36.2002425,1.407009523,Failure
1.970903396,2.539241086,1.05529E-05,-0.001177417,,,,,,2.396250467,0.150123626,-26.00887735,-47.98021212,2.401407355,Failure
1.971789122,1.593168272,5.19545E-05,-0.000934517,,,,,,2.397617349,0.310772056,-24.2663425,-45.31384439,2.189863504,Failure
1.971789122,1.593168272,5.19545E-05,-0.000934517,,,,,,2.401936462,0.517881061,-22.01208845,-41.86028874,1.915075909,Failure
1.983333333,0,0,0,,,,,,2.407181896,1.855379396,-7.278699528,-19.04400562,-0.11465798,Failure
1.984803116,3,-1.39E-05,-0.001202877,,,,,,2.407278436,0.67893393,-20.24476265,-39.15184629,1.692052947,Failure
1.985666607,0.208729938,1.71069E-05,-0.000157298,,,,,,2.409414092,2.388062984,-3.763721481,-10.31021355,-0.182908376,Elastic
1.985666607,0.208729938,1.71069E-05,-0.000157298,,,,,,2.413642375,2.963530812,-3.639777065,-0.653429018,-0.027969986,Elastic
1.985885774,0.41798873,3.12008E-05,-0.000304852,,,,,,2.416326523,0.391947395,-23.36074789,-43.91286605,2.106506134,Failure
1.985885774,0.41798873,3.12008E-05,-0.000304852,,,,,,2.416782884,2.428678422,-3.704297857,-9.658476165,-0.154135561,Elastic
1.988631767,0.629696545,4.23315E-05,-0.000443499,,,,,,2.416943592,0.979332978,-16.90521281,-34.03499539,1.229131274,Failure
1.988631767,0.629696545,4.23315E-05,-0.000443499,,,,,,2.417247308,0.436100639,-22.88016757,-43.17687651,2.047844896,Failure
1.989327545,2.121304217,3.34016E-05,-0.001099997,,,,,,2.417553566,2.785577487,-3.435688319,-3.750651435,-0.099115303,Elastic
1.989327545,2.121304217,3.34016E-05,-0.001099997,,,,,,2.418558847,2.517065177,-3.57849013,-8.218205862,-0.134318044,Elastic
1.991517661,1.797775882,4.69354E-05,-0.001007136,,,,,,2.419538358,2.729636944,-3.427507508,-4.697411815,-0.106994977,Elastic
1.991517661,1.797775882,4.69354E-05,-0.001007136,,,,,,2.421500677,1.140735461,-15.10105866,-31.2611794,0.967073445,Failure
1.992112543,0.839151492,5.0205E-05,-0.000569916,,,,,,2.421793879,2.697868561,-3.433209071,-5.229887233,-0.108301849,Elastic
1.992112543,0.839151492,5.0205E-05,-0.000569916,,,,,,2.428133505,2.636561975,-3.463257717,-6.248490599,-0.105894346,Elastic
2.00071255,1.05041497,5.51497E-05,-0.000686264,,,,,,2.43172207,1.346708892,-12.79553089,-27.69611409,0.636477973,Failure
2.00071255,1.05041497,5.51497E-05,-0.000686264,,,,,,2.433203998,0.1279377,-26.19985903,-48.23890117,2.482305674,Failure
2.00177785,2.418226892,1.76383E-05,-0.001159096,,,,,,2.434107543,1.628992941,-9.683769954,-22.84005707,0.202015462,Failure
2.00177785,2.418226892,1.76383E-05,-0.001159096,,,,,,2.43535587,2.229029969,-4.049385087,-12.83410344,-0.23584321,Elastic
2.005711907,1.264938683,5.68356E-05,-0.000792929,,,,,,2.436354512,1.679228932,-9.133447579,-21.97469581,0.133652169,Failure
2.005711907,1.264938683,5.68356E-05,-0.000792929,,,,,,2.437943198,2.855897492,-3.488284632,-2.541702734,-0.065937177,Elastic
2.024135452,1.481744423,5.58133E-05,-0.000888256,,,,,,2.43818431,2.981125894,-3.692602152,-0.338760948,-0.012610134,Elastic
2.024135452,1.481744423,5.58133E-05,-0.000888256,,,,,,2.441934702,1.221619013,-14.16817056,-29.81618936,0.852111445,Failure
2.026460039,2.00613193,3.96809E-05,-0.001068826,,,,,,2.443041821,1.505243825,-11.02506081,-24.93918579,0.393955981,Failure
2.034030203,2.311923159,2.40719E-05,-0.001139307,,,,,,2.444113785,1.265530165,-13.67705454,-29.05712304,0.781669291,Failure
2.037497536,1.69270843,5.16643E-05,-0.000969273,,,,,,2.444687572,2.35839874,-3.828058177,-10.78901539,-0.121558201,Elastic
2.037497536,1.69270843,5.16643E-05,-0.000969273,,,,,,2.445318204,0.700254027,-19.95486553,-38.68278723,1.707743272,Failure
2.042833304,0.104364969,9.26337E-06,-7.97E-05,,,,,,2.450728114,2.441188444,-3.69102749,-9.437936713,-0.092544875,Elastic
2.045166578,0.313094907,2.54691E-05,-0.000231688,,,,,,2.453699292,0.955934871,-17.10781671,-34.3268307,1.307667686,Failure
2.045166578,0.313094907,2.54691E-05,-0.000231688,,,,,,2.458289189,1.795864195,-7.846067721,-19.94359885,0.004954013,Failure
2.046649157,0.523578211,3.85665E-05,-0.000374558,,,,,,2.45922416,2.556161025,-3.536688765,-7.55841782,-0.063367546,Elastic
2.046649157,0.523578211,3.85665E-05,-0.000374558,,,,,,2.466712368,2.892331229,-3.538927113,-1.907278955,-0.039375546,Elastic
2.050129934,0.733033158,4.83826E-05,-0.000506121,,,,,,2.469253063,1.950004443,-6.20828464,-17.3505246,-0.140829907,Failure
2.056170325,0.94339237,5.50527E-05,-0.000627344,,,,,,2.475141313,0.284573625,-24.44580721,-45.52085496,2.332772722,Failure
2.063592532,1.890959644,4.56234E-05,-0.001034014,,,,,,2.480518443,0.542416406,-21.63624121,-41.22386336,1.986952686,Failure
2.063592532,1.890959644,4.56234E-05,-0.001034014,,,,,,2.481575366,1.52513632,-10.74923279,-24.50232593,0.397882449,Failure
2.064770332,1.154655848,5.858E-05,-0.000737856,,,,,,2.482076435,2.419623264,-3.733535556,-9.763142673,-0.041025021,Elastic
2.064770332,1.154655848,5.858E-05,-0.000737856,,,,,,2.483259897,2.13576673,-4.339813315,-14.3694277,-0.217095516,Elastic
2.066282556,2.205619426,3.05327E-05,-0.001116293,,,,,,2.483404685,2.377448997,-3.802599332,-10.42624385,-0.051663225,Elastic
2.073942847,3,-1.63E-05,-0.001198792,,,,,,2.487386052,2.907153009,-3.566524777,-1.647727881,-0.025900927,Elastic
2.073942847,3,-1.63E-05,-0.001198792,,,,,,2.491019474,0.021908174,-27.27196495,-49.82127163,2.70332356,Failure
2.073942847,3,-1.63E-05,-0.001198792,,,,,,2.491239803,2.780465774,-3.43882957,-3.824592911,-0.023500177,Elastic
2.073942847,3,-1.63E-05,-0.001198792,,,,,,2.491274574,2.026360924,-5.398555281,-16.06840196,-0.169569594,Failure
2.07514035,2.875635525,-9.80E-06,-0.001197983,,,,,,2.492628837,1.772261164,-8.050332418,-20.26546161,0.068083049,Failure
2.07514035,2.875635525,-9.80E-06,-0.001197983,,,,,,2.493726069,2.511850726,-3.592946861,-8.261968092,-0.007567656,Elastic
2.076337854,2.75127105,-2.51E-06,-0.001192582,,,,,,2.494052763,2.270170038,-4.025044086,-12.16214233,-0.079934746,Elastic
2.076337854,2.75127105,-2.51E-06,-0.001192582,,,,,,2.494260669,2.065963294,-4.99503976,-15.42797838,-0.197320084,Failure
2.076481783,1.370320575,5.89755E-05,-0.000838817,,,,,,2.498991303,1.111510994,-15.3032351,-31.54010285,1.094195132,Failure
2.076481783,1.370320575,5.89755E-05,-0.000838817,,,,,,2.501819742,2.631450261,-3.467186219,-6.303160027,0.003889127,Elastic
2.077535357,2.626906576,5.19406E-06,-0.001182615,,,,,,2.50839077,0.804781667,-18.70552889,-36.73373481,1.620862431,Failure
2.077535357,2.626906576,5.19406E-06,-0.001182615,,,,,,2.509825955,0.848564699,-18.21667193,-35.98778228,1.550298758,Failure
2.078732861,2.502542101,1.30172E-05,-0.001168128,,,,,,2.509965904,0.102764366,-26.36995636,-48.42613579,2.623453413,Failure
2.078732861,2.502542101,1.30172E-05,-0.001168128,,,,,,2.511716547,1.367940027,-12.43072814,-27.11020559,0.672658741,Failure
2.078732861,2.502542101,1.30172E-05,-0.001168128,,,,,,2.512094844,0.262387699,-24.63629294,-45.77783715,2.414315329,Failure
2.078732861,2.502542101,1.30172E-05,-0.001168128,,,,,,2.512273764,2.984100793,-3.733174971,-0.285356495,-0.004488473,Elastic
2.078732861,2.502542101,1.30172E-05,-0.001168128,,,,,,2.514853629,2.723024796,-3.427060704,-4.781606353,0.011976199,Elastic
2.078732861,2.502542101,1.30172E-05,-0.001168128,,,,,,2.517109149,2.691256413,-3.433540633,-5.308662722,0.020142197,Elastic
2.089843867,1.581284582,5.6276E-05,-0.000925805,,,,,,2.518558212,0.563736503,-21.34889863,-40.75494119,2.006299647,Failure
2.098534909,2.099315692,3.68777E-05,-0.001090104,,,,,,2.520133331,2.493684607,-3.620679667,-8.539834223,0.03859357,Elastic
2.098534909,2.099315692,3.68777E-05,-0.001090104,,,,,,2.52374876,0.723425779,-19.58427444,-38.06150041,1.771112722,Failure
2.1,0,0,0,,,,,,2.526667362,2.286217633,-4.018617812,-11.88459215,0.002287557,Elastic
2.102333274,0.208729938,1.84169E-05,-0.000156635,,,,,,2.530271509,0.386555886,-23.26428247,-43.66661881,2.272382047,Failure
2.104666548,0.417459876,3.35651E-05,-0.000303172,,,,,,2.530480765,0.928798236,-17.28994422,-34.56223017,1.439010554,Failure
2.104666548,0.417459876,3.35651E-05,-0.000303172,,,,,,2.531364582,0.438970638,-22.69264042,-42.79355393,2.201308208,Failure
2.104666548,0.417459876,3.35651E-05,-0.000303172,,,,,,2.534916958,2.925421809,-3.599761289,-1.326088178,-0.002477252,Elastic
2.104666548,0.417459876,3.35651E-05,-0.000303172,,,,,,2.535653062,2.794758129,-3.438957837,-3.572613473,0.023212819,Elastic
2.104666548,0.417459876,3.35651E-05,-0.000303172,,,,,,2.535747004,1.088112888,-15.50559925,-31.83309758,1.172759284,Failure
2.104666548,0.417459876,3.35651E-05,-0.000303172,,,,,,2.538580031,1.918264419,-6.460674636,-17.75394325,-0.017718946,Failure
2.108147325,0.626914824,4.54415E-05,-0.000439791,,,,,,2.546306308,1.627280736,-9.535474443,-22.5946156,0.310710766,Failure
2.109572407,1.785892192,5.10123E-05,-0.000998641,,,,,,2.548199115,1.66959863,-9.075302794,-21.87316078,0.256178717,Failure
2.110985214,2.396238367,1.99026E-05,-0.001150762,,,,,,2.548824681,2.609239522,-3.479795422,-6.642396441,0.081834977,Elastic
2.110985214,2.396238367,1.99026E-05,-0.001150762,,,,,,2.550250092,1.387832523,-12.14719312,-26.66069528,0.674689549,Failure
2.111628101,0.836369771,5.39489E-05,-0.000565751,,,,,,2.556018003,2.149531353,-4.404453261,-14.00718828,-0.054093745,Elastic
2.111628101,0.836369771,5.39489E-05,-0.000565751,,,,,,2.556326746,2.809579909,-3.440936378,-3.316148668,0.041750349,Elastic
2.120228108,1.047633249,5.93116E-05,-0.000681657,,,,,,2.556486531,1.21194578,-14.09059421,-29.65454909,0.979414429,Failure
2.128828114,1.258896727,6.13258E-05,-0.00078628,,,,,,2.559073342,1.264073144,-13.5027879,-28.74997063,0.891252609,Failure
2.128828114,1.258896727,6.13258E-05,-0.00078628,,,,,,2.559379844,1.546165031,-10.39967604,-23.94287989,0.43884827,Failure
2.128828114,1.258896727,6.13258E-05,-0.00078628,,,,,,2.568258407,1.744664987,-8.243628553,-20.5648503,0.184033498,Failure
2.128828114,1.258896727,6.13258E-05,-0.00078628,,,,,,2.570954762,0.206704842,-25.160937,-46.521621,2.57189854,Failure
2.128828114,1.258896727,6.13258E-05,-0.00078628,,,,,,2.572769981,2.410980043,-3.762139847,-9.833573206,0.132165491,Elastic
2.128828114,1.258896727,6.13258E-05,-0.00078628,,,,,,2.572919679,1.894661388,-6.672608246,-18.08842627,0.049148227,Failure
2.135667403,1.984143406,4.3527E-05,-0.001058109,,,,,,2.573888874,2.375453201,-3.834496862,-10.40067935,0.124550009,Elastic
2.135667403,1.984143406,4.3527E-05,-0.001058109,,,,,,2.574139411,0.360218753,-23.49050623,-43.97077588,2.37016439,Failure
2.136592682,2.930276761,-1.43E-05,-0.001195792,,,,,,2.575231942,2.591073403,-3.49282639,-6.921190502,0.129361878,Elastic
2.136592682,2.930276761,-1.43E-05,-0.001195792,,,,,,2.576521967,0.464279936,-22.35461365,-42.23706374,2.229189718,Failure
2.137790185,2.805912286,-6.78E-06,-0.001192468,,,,,,2.580369074,0.617886943,-20.66573536,-39.66271679,2.008803166,Failure
2.138987689,2.681547811,1.3063E-06,-0.001184542,,,,,,2.583092334,2.470949461,-3.655748511,-8.861053228,0.154980503,Elastic
2.140185192,2.557183336,9.59732E-06,-0.001172066,,,,,,2.585012862,2.720986841,-3.408975243,-4.785351374,0.110755269,Elastic
2.140185192,2.557183336,9.59732E-06,-0.001172066,,,,,,2.587690413,2.683274279,-3.420123082,-5.405656428,0.127289668,Elastic
2.142190198,1.469860734,6.02331E-05,-0.000879135,,,,,,2.588213563,2.849990091,-3.465782892,-2.623178386,0.057987555,Elastic
2.143237567,2.289934634,2.6897E-05,-0.001130143,,,,,,2.588340714,2.304304195,-4.006383615,-11.53771554,0.139874162,Elastic
2.143237567,2.289934634,2.6897E-05,-0.001130143,,,,,,2.588632602,2.165578947,-4.360788746,-13.70845089,0.026339573,Elastic
2.155552282,1.680824741,5.59582E-05,-0.000960335,,,,,,2.59391013,1.03098229,-16.04760379,-32.63104952,1.33350181,Failure
2.155552282,1.680824741,5.59582E-05,-0.000960335,,,,,,2.595173884,2.011506735,-5.453468813,-16.16210533,0.012687436,Failure
2.156809279,3,-1.88E-05,-0.001194504,,,,,,2.598718707,2.058519101,-4.976887969,-15.40887684,-0.012676509,Failure
2.15949997,0.104364969,9.96046E-06,-7.94E-05,,,,,,2.600119587,1.184169657,-14.32599593,-29.99716284,1.070569696,Failure
2.161833244,0.313094907,2.73495E-05,-0.000230649,,,,,,2.604816895,1.287687722,-13.1677955,-28.21735251,0.895923569,Failure
2.161833244,0.313094907,2.73495E-05,-0.000230649,,,,,,2.609554797,2.738581923,-3.39759502,-4.482453878,0.139666106,Elastic
2.166164715,0.52079649,4.1287E-05,-0.000370997,,,,,,2.612470835,1.440018344,-11.46586451,-25.58744382,0.650602935,Failure
2.166164715,0.52079649,4.1287E-05,-0.000370997,,,,,,2.612610925,2.925421809,-3.574708419,-1.320329614,0.037092243,Elastic
2.169645492,0.730251437,5.18598E-05,-0.000502041,,,,,,2.612773148,2.984100793,-3.725962962,-0.2853119,0.00553056,Elastic
2.171011999,2.477464703,1.50388E-05,-0.001160169,,,,,,2.618858717,0.3858906,-23.14970181,-43.40827693,2.397936832,Failure
2.171011999,2.477464703,1.50388E-05,-0.001160169,,,,,,2.619038735,2.661709099,-3.421442801,-5.738349664,0.185210004,Elastic
2.175489921,2.183630901,3.38405E-05,-0.001106324,,,,,,2.6201482,0.437537031,-22.58485357,-42.54700339,2.327460623,Failure
2.175489921,2.183630901,3.38405E-05,-0.001106324,,,,,,2.625687916,2.546238698,-3.537746973,-7.610280074,0.227050216,Elastic
2.175685883,0.940610649,5.90635E-05,-0.000622766,,,,,,2.627631127,0.102764366,-26.21219653,-48.06602585,2.79045277,Failure
2.181647278,1.879075954,4.95853E-05,-0.001025219,,,,,,2.630329574,1.839290034,-7.181279869,-18.88592954,0.178070615,Failure
2.18428589,1.151874127,6.29066E-05,-0.000732802,,,,,,2.632124965,0.262387699,-24.47403697,-45.41285365,2.584402615,Failure
2.18428589,1.151874127,6.29066E-05,-0.000732802,,,,,,2.635582246,2.809579909,-3.401706258,-3.290717551,0.13576194,Elastic
2.194536529,1.358436885,6.34132E-05,-0.000829345,,,,,,2.63593882,1.983487344,-5.715148564,-16.57331557,0.100679576,Failure
2.194536529,1.358436885,6.34132E-05,-0.000829345,,,,,,2.636244742,2.211040956,-4.270654381,-12.92897089,0.176300811,Elastic
2.199242517,2.860553521,-1.15E-05,-0.001191136,,,,,,2.63743582,2.077569359,-4.795380154,-15.12042062,0.080664475,Failure
2.199242517,2.860553521,-1.15E-05,-0.001191136,,,,,,2.639389077,0.560604132,-21.21005504,-40.43796344,2.175408956,Failure
2.20044002,2.736189046,-3.03E-06,-0.001185273,,,,,,2.642198951,0.720355124,-19.43813661,-37.74844827,1.924296331,Failure
2.201637524,2.611824571,5.73997E-06,-0.001174824,,,,,,2.64322283,0.021908174,-27.06898485,-49.35449493,2.919527034,Failure
2.201637524,2.611824571,5.73997E-06,-0.001174824,,,,,,2.64536852,1.208582826,-13.97808759,-29.44375182,1.073604373,Failure
2.203264353,2.371160969,2.24607E-05,-0.001141883,,,,,,2.646305577,2.719800428,-3.382924355,-4.767777667,0.205985644,Elastic
2.207742274,2.077327167,4.05866E-05,-0.001079366,,,,,,2.647479017,1.259973528,-13.39840116,-28.55479881,0.98401841,Failure
2.207742274,2.077327167,4.05866E-05,-0.001079366,,,,,,2.648930956,0.925727581,-17.13369383,-34.24959521,1.57940223,Failure
2.207742274,2.077327167,4.05866E-05,-0.001079366,,,,,,2.653111964,2.680640166,-3.397387755,-5.4034157,0.234665019,Elastic
2.207742274,2.077327167,4.05866E-05,-0.001079366,,,,,,2.656577869,1.084980517,-15.33968922,-31.5168632,1.305888739,Failure
2.207742274,2.077327167,4.05866E-05,-0.001079366,,,,,,2.661609504,0.800809687,-18.50935154,-36.32621515,1.81161041,Failure
2.207742274,2.077327167,4.05866E-05,-0.001079366,,,,,,2.663044689,0.844592718,-18.01662984,-35.57928721,1.736300767,Failure
2.207898613,1.569400892,6.0724E-05,-0.00091643,,,,,,2.666540442,2.793758716,-3.369938474,-3.538091143,0.189787208,Elastic
2.216666667,0,0,0,,,,,,2.667140936,2.907153009,-3.494205432,-1.628562562,0.088618044,Elastic
2.218999941,0.208729938,1.97504E-05,-0.000155899,,,,,,2.669139075,1.381696859,-12.01648801,-26.42033506,0.800835219,Failure
2.218999941,0.208729938,1.97504E-05,-0.000155899,,,,,,2.669795702,0.284013201,-24.18849698,-44.93889589,2.609174686,Failure
2.219459114,2.930276761,-1.65E-05,-0.00119118,,,,,,2.671320282,2.585171279,-3.477582709,-6.937913421,0.300627653,Elastic
2.222304526,0.416153301,3.58869E-05,-0.000300828,,,,,,2.675926413,1.540150256,-10.2879026,-23.74093282,0.568800147,Failure
2.222304526,0.416153301,3.58869E-05,-0.000300828,,,,,,2.676139029,0.53807639,-21.40567191,-40.70070887,2.259405023,Failure
2.227627152,1.774008502,5.52447E-05,-0.000989375,,,,,,2.677287491,2.465163624,-3.662079742,-8.866499426,0.334894234,Elastic
2.227662883,0.624133103,4.8583E-05,-0.000435848,,,,,,2.678862692,2.055021376,-4.956642186,-15.37186116,0.142884561,Failure
2.227662883,0.624133103,4.8583E-05,-0.000435848,,,,,,2.680910515,2.007951727,-5.42816423,-16.11458579,0.177021714,Failure
2.231143659,0.83358805,5.77403E-05,-0.000561252,,,,,,2.682535871,2.298518358,-4.052848117,-11.52710296,0.336673021,Elastic
2.231143659,0.83358805,5.77403E-05,-0.000561252,,,,,,2.684720942,2.159676823,-4.479937566,-13.69885036,0.250981031,Elastic
2.232464331,2.532105938,1.14233E-05,-0.001164057,,,,,,2.684804976,1.738650212,-8.163332567,-20.41966409,0.347277313,Failure
2.235516706,2.264857236,2.99111E-05,-0.00112037,,,,,,2.68800234,2.981125894,-3.659034723,-0.336697503,0.022341523,Elastic
2.239675711,3,-2.16E-05,-0.001189692,,,,,,2.691808662,1.888525725,-6.625510695,-17.99955388,0.257037395,Failure
2.239743666,1.044851528,6.35368E-05,-0.000676613,,,,,,2.694614129,2.403495897,-3.788833111,-9.836294956,0.371807754,Elastic
2.239743666,1.044851528,6.35368E-05,-0.000676613,,,,,,2.694694755,1.105545732,-15.04340538,-31.04465813,1.308294275,Failure
2.247176967,1.253191003,6.5719E-05,-0.000779402,,,,,,2.695733023,2.367969054,-3.87069534,-10.3989449,0.370066446,Elastic
2.247176967,1.253191003,6.5719E-05,-0.000779402,,,,,,2.697062651,1.619500451,-9.400593772,-22.35273391,0.490018237,Failure
2.253722149,1.972259716,4.73213E-05,-0.00104895,,,,,,2.698099132,2.891331816,-3.434109861,-1.895494774,0.133549987,Elastic
2.253722149,1.972259716,4.73213E-05,-0.00104895,,,,,,2.698955458,1.661818345,-8.944093421,-21.63989218,0.438984378,Failure
2.260244944,1.457977044,6.47519E-05,-0.000869382,,,,,,2.700022958,2.601118469,-3.448353688,-6.648571867,0.347867136,Elastic
2.260244944,1.457977044,6.47519E-05,-0.000869382,,,,,,2.705076878,1.358350922,-12.21500357,-26.71253768,0.875993648,Failure
2.261892352,2.790830282,-7.84E-06,-0.001184773,,,,,,2.705437475,0.1279377,-25.83432353,-47.40638609,2.868303491,Failure
2.261892352,2.790830282,-7.84E-06,-0.001184773,,,,,,2.719367803,0.693149676,-19.62071648,-37.9596255,2.066762473,Failure
2.263089855,2.666465807,1.41601E-06,-0.001176369,,,,,,2.719618193,2.140682808,-4.602731255,-13.972257,0.322089381,Elastic
2.263089855,2.666465807,1.41601E-06,-0.001176369,,,,,,2.724753121,2.962344399,-3.557804867,-0.673175912,0.0570338,Elastic
2.263291138,2.452387304,1.73255E-05,-0.001151406,,,,,,2.727748891,0.94883052,-16.74681851,-33.60766462,1.631063097,Failure
2.263291138,2.452387304,1.73255E-05,-0.001151406,,,,,,2.729692008,1.909134081,-6.384178215,-17.61125569,0.308498131,Failure
2.267769059,2.158553503,3.72279E-05,-0.001095692,,,,,,2.732081575,0.388674672,-22.96293985,-43.00930346,2.553662531,Failure
2.267769059,2.158553503,3.72279E-05,-0.001095692,,,,,,2.733167812,0.432180695,-22.48514683,-42.28258407,2.493288475,Failure
2.273607027,1.668941051,6.0385E-05,-0.000950651,,,,,,2.733428742,2.775777842,-3.314259669,-3.778817511,0.314264531,Elastic
2.273607027,1.668941051,6.0385E-05,-0.000950651,,,,,,2.737114082,2.7171885,-3.333988466,-4.72558706,0.361172936,Elastic
2.276166637,0.104364969,1.0669E-05,-7.90E-05,,,,,,2.738065819,2.480298336,-3.623850087,-8.551001381,0.450600254,Elastic
2.276166637,0.104364969,1.0669E-05,-7.90E-05,,,,,,2.742847659,2.684200601,-3.351645713,-5.253750715,0.389744492,Elastic
2.279471222,0.311788332,2.9168E-05,-0.000228575,,,,,,2.743108212,0.149563202,-25.54930397,-46.92983772,2.894673082,Failure
2.282108949,2.860553521,-1.33E-05,-0.001186151,,,,,,2.74459985,2.272831362,-4.145826633,-11.85913063,0.462941136,Elastic
2.283802693,0.519489914,4.40693E-05,-0.00036823,,,,,,2.747656367,0.308143282,-23.81943355,-44.29396224,2.687696878,Failure
2.28916105,0.727469716,5.53669E-05,-0.000497667,,,,,,2.748929727,2.981218505,-3.561843659,-0.334807431,0.036505147,Elastic
2.28916105,0.727469716,5.53669E-05,-0.000497667,,,,,,2.751220693,1.511220372,-10.48377569,-24.01967602,0.69854262,Failure
2.293916662,2.586747173,7.34077E-06,-0.001166728,,,,,,2.752751566,0.512216377,-21.57938382,-40.88854317,2.403358865,Failure
2.295201441,0.937828928,6.31187E-05,-0.000617787,,,,,,2.756117756,0.670621934,-19.8125179,-38.2160726,2.151284832,Failure
2.295201441,0.937828928,6.31187E-05,-0.000617787,,,,,,2.756377214,0.02600741,-26.87356425,-48.9296837,3.076403448,Failure
2.295543491,2.346083571,2.52716E-05,-0.001132201,,,,,,2.757826103,2.85120956,-3.301764085,-2.529545909,0.27196767,Elastic
2.299702023,1.867192264,5.37069E-05,-0.001015559,,,,,,2.758339119,1.208208075,-13.78369198,-29.0911104,1.188754314,Failure
2.299702023,1.867192264,5.37069E-05,-0.001015559,,,,,,2.760116964,1.251498677,-13.29915031,-28.35072809,1.113388824,Failure
2.302325546,2.930276761,-1.89E-05,-0.001185999,,,,,,2.760323156,2.621041961,-3.403716203,-6.252756402,0.450291798,Elastic
2.302634743,1.146168404,6.72217E-05,-0.000725838,,,,,,2.762274164,1.758345216,-7.88806201,-19.96252659,0.471548303,Failure
2.312885382,1.352731162,6.78891E-05,-0.000821996,,,,,,2.765865777,0.969395735,-16.44841871,-33.13023092,1.634227576,Failure
2.315266553,2.066081735,4.38549E-05,-0.001070563,,,,,,2.766768494,2.496245526,-3.589192157,-8.256797184,0.50233383,Elastic
2.315266553,2.066081735,4.38549E-05,-0.001070563,,,,,,2.772704478,1.127447254,-14.661242,-30.41885326,1.349350462,Failure
2.322542143,3,-2.45E-05,-0.001184297,,,,,,2.775330428,0.793757246,-18.40331588,-36.07390579,1.961751598,Failure
2.324542187,2.721107042,-3.41E-06,-0.001176666,,,,,,2.777034151,0.845732517,-17.82002955,-35.19205686,1.873057289,Failure
2.324542187,2.721107042,-3.41E-06,-0.001176666,,,,,,2.779497102,2.253837347,-4.20865427,-12.10738561,0.527326964,Elastic
2.324542187,2.721107042,-3.41E-06,-0.001176666,,,,,,2.781043789,1.330509878,-12.39630629,-26.95712632,1.004704909,Failure
2.324542187,2.721107042,-3.41E-06,-0.001176666,,,,,,2.784952572,2.40101942,-3.791155609,-9.75803399,0.553406773,Elastic
2.324542187,2.721107042,-3.41E-06,-0.001176666,,,,,,2.786280822,2.358845153,-3.897273883,-10.42704158,0.556133261,Elastic
2.324743469,2.50702854,1.35294E-05,-0.001155187,,,,,,2.787158496,1.487874434,-10.6729692,-24.2979881,0.77532555,Failure
2.325953358,1.557517202,6.52762E-05,-0.00090634,,,,,,2.792422936,2.054659135,-5.048523878,-15.20894389,0.426745198,Elastic
2.325953358,1.557517202,6.52762E-05,-0.00090634,,,,,,2.793560484,2.891709384,-3.278395156,-1.836747595,0.267952742,Elastic
2.327795844,2.239779838,3.31567E-05,-0.001109805,,,,,,2.794147986,2.01500851,-5.30749767,-15.88953825,0.414839235,Failure
2.327795844,2.239779838,3.31567E-05,-0.001109805,,,,,,2.799936792,2.121945998,-4.749847571,-14.14288308,0.498347192,Elastic
2.333333333,0,0,0,,,,,,2.80015751,1.778953572,-7.642585188,-19.56255241,0.524549549,Failure
2.333333333,0,0,0,,,,,,2.801096519,0.051679257,-26.53464754,-48.36215889,3.106148444,Failure
2.333333333,0,0,0,,,,,,2.804332732,0.204202806,-24.87321401,-45.8316104,2.909752486,Failure
2.336637919,0.207423362,2.09916E-05,-0.00015414,,,,,,2.808028459,1.935957363,-6.063514801,-17.07663518,0.460846485,Failure
2.339942504,0.414846725,3.82224E-05,-0.000298327,,,,,,2.808852655,1.609652967,-9.350909424,-22.23482116,0.660536242,Failure
2.339942504,0.414846725,3.82224E-05,-0.000298327,,,,,,2.811099624,1.659888958,-8.834720125,-21.42851828,0.61626872,Failure
2.344758784,2.790830282,-9.28E-06,-0.001179367,,,,,,2.81192273,2.539966887,-3.49916185,-7.48416872,0.576213481,Elastic
2.344758784,2.790830282,-9.28E-06,-0.001179367,,,,,,2.813926422,2.907608592,-3.266389601,-1.575639973,0.272302269,Elastic
2.34530086,0.622826527,5.17671E-05,-0.00043261,,,,,,2.814581442,0.614684558,-20.3469231,-38.9658721,2.320603383,Failure
2.345681898,1.762124813,5.96132E-05,-0.000979272,,,,,,2.817030597,2.984178807,-3.424525439,-0.297717835,0.026605548,Elastic
2.345681898,1.762124813,5.96132E-05,-0.000979272,,,,,,2.818956661,0.767014341,-18.63627186,-36.38565084,2.064826689,Failure
2.350659217,0.830806329,6.15573E-05,-0.000556397,,,,,,2.819025802,2.419950487,-3.740323766,-9.402713941,0.618671714,Elastic
2.350659217,0.830806329,6.15573E-05,-0.000556397,,,,,,2.822283084,0.870145686,-17.47084309,-34.62874656,1.882381803,Failure
2.350659217,0.830806329,6.15573E-05,-0.000556397,,,,,,2.827009263,2.776147972,-3.237077611,-3.650755389,0.488621504,Elastic
2.350659217,0.830806329,6.15573E-05,-0.000556397,,,,,,2.827707694,2.336297171,-3.968631414,-10.7279931,0.643043302,Elastic
2.350659217,0.830806329,6.15573E-05,-0.000556397,,,,,,2.827725303,1.022192546,-15.74575701,-32.02522431,1.603521311,Failure
2.350659217,0.830806329,6.15573E-05,-0.000556397,,,,,,2.844499367,1.43064179,-11.19966332,-25.08481443,0.927268009,Failure
2.355368994,2.641388409,2.75931E-06,-0.001168147,,,,,,2.844719305,0.025671847,-26.76119953,-48.65420062,3.203043787,Failure
2.355368994,2.641388409,2.75931E-06,-0.001168147,,,,,,2.846227921,2.209423399,-4.398788544,-12.71097632,0.658331927,Elastic
2.355570276,2.427309906,1.98838E-05,-0.001141777,,,,,,2.851514777,1.581938773,-9.599908857,-22.60053927,0.762403557,Failure
2.355570276,2.427309906,1.98838E-05,-0.001141777,,,,,,2.851637617,2.400538619,-3.783187285,-9.658169564,0.685553536,Elastic
2.358092518,1.039145804,6.77031E-05,-0.000669624,,,,,,2.853356323,2.925787751,-3.139651828,-1.232230244,0.31287811,Elastic
2.361246428,1.961014283,5.09418E-05,-0.00103965,,,,,,2.853903677,2.62141209,-3.363430092,-6.098176829,0.624157144,Elastic
2.364975381,2.860553521,-1.53E-05,-0.001180547,,,,,,2.85607132,1.684353341,-8.556722068,-20.96503864,0.700559436,Failure
2.364975381,2.860553521,-1.53E-05,-0.001180547,,,,,,2.858163182,2.717667274,-3.261204177,-4.538383325,0.582961236,Elastic
2.36552582,1.24748528,7.01627E-05,-0.000771958,,,,,,2.85899126,2.359059569,-3.894765008,-10.30862096,0.704574658,Elastic
2.36552582,1.24748528,7.01627E-05,-0.000771958,,,,,,2.862229846,2.496623094,-3.562446578,-8.094842057,0.684178251,Elastic
2.375293338,2.14730807,4.02706E-05,-0.001086525,,,,,,2.862503861,1.83531754,-7.021626399,-18.55387034,0.623440855,Failure
2.378593796,1.452271321,6.92613E-05,-0.000861503,,,,,,2.863209561,0.148195147,-25.40352349,-46.56805388,3.068439573,Failure
2.385191978,2.930276761,-2.14E-05,-0.001180185,,,,,,2.863702133,0.791961575,-18.27892196,-35.80817165,2.073624068,Failure
2.385191978,2.930276761,-2.14E-05,-0.001180185,,,,,,2.86389676,2.684679374,-3.286434635,-5.05896786,0.614120126,Elastic
2.386195801,2.561669775,9.23892E-06,-0.001157709,,,,,,2.865324833,0.84311765,-17.69902535,-34.93535863,1.982225549,Failure
2.386195801,2.561669775,9.23892E-06,-0.001157709,,,,,,2.865391415,0.306802181,-23.67220718,-43.93564418,2.858871272,Failure
2.38782263,2.321006173,2.83324E-05,-0.001121664,,,,,,2.870486613,0.510875277,-21.41951863,-40.52308906,2.564804461,Failure
2.38782263,2.321006173,2.83324E-05,-0.001121664,,,,,,2.876219104,0.669253879,-19.63730778,-37.8379165,2.304938174,Failure
2.391661773,1.657057361,6.49201E-05,-0.000940162,,,,,,2.883050894,2.794615058,-3.17508797,-3.258578365,0.585482611,Elastic
2.391661773,1.657057361,6.49201E-05,-0.000940162,,,,,,2.88437525,0.38693992,-22.76864015,-42.54425658,2.772720301,Failure
2.391661773,1.657057361,6.49201E-05,-0.000940162,,,,,,2.885461488,0.430445943,-22.28927484,-41.81783279,2.71081557,Failure
2.391661773,1.657057361,6.49201E-05,-0.000940162,,,,,,2.885636805,0.964687906,-16.29047061,-32.80227913,1.776350137,Failure
2.391661773,1.657057361,6.49201E-05,-0.000940162,,,,,,2.889701452,2.480270886,-3.588493028,-8.306436852,0.741113033,Elastic
2.391661773,1.657057361,6.49201E-05,-0.000940162,,,,,,2.890115712,1.122832181,-14.5046211,-30.10640254,1.48382985,Failure
2.393804615,0.103058393,1.12545E-05,-7.76E-05,,,,,,2.896750915,1.605586642,-9.305785122,-22.11377161,0.825986802,Failure
2.393804615,0.103058393,1.12545E-05,-7.76E-05,,,,,,2.898455024,1.325894805,-12.2467214,-26.664666,1.147248006,Failure
2.3971092,0.310481756,3.09886E-05,-0.000226386,,,,,,2.899060488,1.657765219,-8.763747713,-21.26631267,0.788039962,Failure
2.397603092,2.716038709,-3.87E-06,-0.001171174,,,,,,2.899523357,2.257049242,-4.229831802,-11.86160189,0.789273992,Elastic
2.397603092,2.716038709,-3.87E-06,-0.001171174,,,,,,2.89995661,0.126286973,-25.59165039,-46.80914684,3.14964925,Failure
2.401440671,0.518183338,4.6861E-05,-0.000365254,,,,,,2.903416832,2.810514265,-3.165948128,-2.948019811,0.61337986,Elastic
2.405408575,3,-2.76E-05,-0.001178252,,,,,,2.906929523,1.483166605,-10.55313067,-24.05201267,0.945479703,Failure
2.405408575,3,-2.76E-05,-0.001178252,,,,,,2.910213934,1.202238345,-13.58444004,-28.69787125,1.364024595,Failure
2.405408575,3,-2.76E-05,-0.001178252,,,,,,2.910457235,2.984178807,-2.943785269,-0.243313058,0.141389589,Elastic
2.406799028,0.72616314,5.88947E-05,-0.000493907,,,,,,2.911991778,1.245528947,-13.10199646,-27.96213419,1.293493188,Failure
2.406799028,0.72616314,5.88947E-05,-0.000493907,,,,,,2.913911884,0.69026898,-19.3446645,-37.35875788,2.31928017,Failure
2.407226302,1.855946832,5.76017E-05,-0.001005816,,,,,,2.91653341,2.601974811,-3.365618732,-6.28703694,0.74843035,Elastic
2.413550294,0.932123205,6.70666E-05,-0.000610834,,,,,,2.917598227,2.12509461,-4.81298683,-13.91006012,0.789886776,Elastic
2.413550294,0.932123205,6.70666E-05,-0.000610834,,,,,,2.920183765,1.782165467,-7.508580027,-19.27925499,0.774545313,Failure
2.417022608,2.481951142,1.5923E-05,-0.001145388,,,,,,2.921894399,0.941919975,-16.48435679,-33.06373629,1.861194997,Failure
2.417022608,2.481951142,1.5923E-05,-0.001145388,,,,,,2.922539483,2.850726162,-3.041757587,-2.294208372,0.622275946,Elastic
2.417819688,2.785761949,-1.02E-05,-0.001173798,,,,,,2.925582498,2.925787751,-2.941140607,-1.102043796,0.475392166,Elastic
2.420983596,1.140462681,7.15622E-05,-0.000718352,,,,,,2.925689893,1.939105976,-5.967362831,-16.84691327,0.734642981,Failure
2.422790832,2.054836302,4.72642E-05,-0.001060871,,,,,,2.925876069,2.276223877,-4.162103638,-11.50576421,0.843233791,Elastic
2.422790832,2.054836302,4.72642E-05,-0.001060871,,,,,,2.927195106,2.400753134,-3.768937946,-9.507848837,0.833151631,Elastic
2.428429899,2.636320076,2.75783E-06,-0.001162346,,,,,,2.933389682,2.365811929,-3.866751122,-10.05601895,0.851420046,Elastic
2.431234235,1.347025439,7.24117E-05,-0.000814001,,,,,,2.940783411,2.463263811,-3.610329447,-8.471853193,0.842721652,Elastic
2.435320123,2.228534405,3.5926E-05,-0.001100221,,,,,,2.942190726,0.280910394,-23.85003391,-44.11239429,3.004218596,Failure
2.438036285,2.855485188,-1.67E-05,-0.001174898,,,,,,2.944005016,2.585622603,-3.377952867,-6.490313555,0.805479125,Elastic
2.444302211,1.551811479,6.97681E-05,-0.000897863,,,,,,2.944621391,2.058731956,-5.182234549,-14.88701534,0.825284669,Elastic
2.444302211,1.551811479,6.97681E-05,-0.000897863,,,,,,2.945035632,1.503087143,-10.31002233,-23.64431705,1.002811256,Failure
2.447849415,2.402232508,2.27118E-05,-0.001131221,,,,,,2.94634644,2.019081331,-5.40870162,-15.48396854,0.783886341,Elastic
2.447849415,2.402232508,2.27118E-05,-0.001131221,,,,,,2.94720541,2.720990547,-3.211097691,-4.300711936,0.75358543,Elastic
2.447849415,2.402232508,2.27118E-05,-0.001131221,,,,,,2.948534053,0.534973583,-21.02853283,-39.85033885,2.626298801,Failure
2.447849415,2.402232508,2.27118E-05,-0.001131221,,,,,,2.954011797,2.681830285,-3.248289199,-4.91411173,0.785425567,Elastic
2.447849415,2.402232508,2.27118E-05,-0.001131221,,,,,,2.956397067,1.759768111,-7.722846471,-19.58590653,0.867812686,Failure
2.447849415,2.402232508,2.27118E-05,-0.001131221,,,,,,2.957700858,0.021625502,-26.65419504,-48.34971558,3.37014141,Failure
2.45,0,0,0,,,,,,2.966340596,1.094868172,-14.67909443,-30.3143702,1.62024156,Failure
2.453206177,1.75087938,6.37048E-05,-0.000969143,,,,,,2.969840222,2.299365589,-4.077808549,-11.03839131,0.931042798,Elastic
2.453206177,1.75087938,6.37048E-05,-0.000969143,,,,,,2.971382016,2.739864653,-3.161195943,-3.932551794,0.785685019,Elastic
2.454275896,0.206116787,2.22252E-05,-0.000152309,,,,,,2.976233207,0.793344335,-18.0717574,-35.39317976,2.203413227,Failure
2.454275896,0.206116787,2.22252E-05,-0.000152309,,,,,,2.976701605,0.10143844,-25.75954203,-46.96669255,3.292644254,Failure
2.457580482,0.413540149,4.0556E-05,-0.000295663,,,,,,2.97672272,1.347673362,-11.88215677,-26.0555995,1.215343224,Failure
2.457580482,0.413540149,4.0556E-05,-0.000295663,,,,,,2.977094646,2.810514265,-3.134631344,-2.815059574,0.762034537,Elastic
2.458252882,2.925208428,-2.34E-05,-0.001174447,,,,,,2.977600141,0.836437292,-17.58121984,-34.65776643,2.124928834,Failure
2.458252882,2.925208428,-2.34E-05,-0.001174447,,,,,,2.978937776,0.25900222,-24.04107341,-44.35561976,3.087170751,Failure
2.459256706,2.556601442,9.66216E-06,-0.001151607,,,,,,2.981030874,2.907608592,-2.837062939,-1.274225725,0.703476582,Elastic
2.462938838,0.621519951,5.49531E-05,-0.000429107,,,,,,2.98116656,2.981218505,-2.218700696,-0.276297465,0.414471773,Elastic
2.462938838,0.621519951,5.49531E-05,-0.000429107,,,,,,2.982764357,2.544709014,-3.430654884,-7.058768075,0.893411723,Elastic
2.46810419,0.827761733,6.52959E-05,-0.00055108,,,,,,2.986226833,0.555988684,-20.7372397,-39.36882808,2.64339601,Failure
2.46810419,0.827761733,6.52959E-05,-0.00055108,,,,,,2.986623613,2.662418416,-3.258599023,-5.148055771,0.853641138,Elastic
2.468770707,1.949768851,5.46819E-05,-0.001029484,,,,,,2.99138644,0.713259801,-18.95438084,-36.69631618,2.371360684,Failure
2.470663996,2.710970376,-4.29E-06,-0.001165117,,,,,,2.991842903,2.147967525,-4.712661308,-13.40069985,0.967455213,Elastic
2.470663996,2.710970376,-4.29E-06,-0.001165117,,,,,,2.997425277,0.381578411,-22.6679737,-42.25634237,2.938527512,Failure
2.476441371,1.033440081,7.18698E-05,-0.00066216,,,,,,2.997798296,0.915395331,-16.64686809,-33.24316712,1.994671805,Failure
2.476441371,1.033440081,7.18698E-05,-0.00066216,,,,,,2.99871476,0.433224841,-22.09134826,-41.38624409,2.861189954,Failure
2.482443198,3,-3.07E-05,-0.001171988,,,,,,3.001916718,1.916418797,-6.14627108,-17.05747255,0.922011716,Failure
2.482817617,2.136062637,4.34556E-05,-0.001076383,,,,,,3.002598191,1.072100242,-14.86744428,-30.56972645,1.70282024,Failure
2.483874673,1.241779557,7.46273E-05,-0.000763913,,,,,,3.005226303,2.731978526,-3.165852061,-3.993555654,0.86657082,Elastic
2.483874673,1.241779557,7.46273E-05,-0.000763913,,,,,,3.005604464,2.803871134,-3.099495873,-2.84215633,0.841332355,Elastic
2.490083513,2.476882809,1.67346E-05,-0.001138999,,,,,,3.009540692,2.90096546,-2.869664885,-1.362763004,0.779860216,Elastic
2.490083513,2.476882809,1.67346E-05,-0.001138999,,,,,,3.009687671,1.604204892,-9.211080522,-21.87771047,1.050450331,Failure
2.490880593,2.780693616,-1.10E-05,-0.001167647,,,,,,3.011633214,1.648159186,-8.785268815,-21.20233554,1.04570568,Failure
2.495346909,2.30976074,3.07757E-05,-0.001111604,,,,,,3.014828828,1.367593901,-11.62047956,-25.62217739,1.252447698,Failure
2.495346909,2.30976074,3.07757E-05,-0.001111604,,,,,,3.015010847,2.973332379,-2.125391366,-0.414730127,0.69293166,Elastic
2.496942649,1.446565598,7.38126E-05,-0.000852888,,,,,,3.018195615,2.167142159,-4.626476429,-13.03077492,1.025492868,Elastic
2.496942649,1.446565598,7.38126E-05,-0.000852888,,,,,,3.019519292,2.466757963,-3.577533885,-8.218927416,0.989540722,Elastic
2.501490803,2.631251743,2.8037E-06,-0.001155967,,,,,,3.021866526,2.674312571,-3.23046172,-4.872278414,0.915855226,Elastic
2.507219278,1.65109363,6.92491E-05,-0.000931102,,,,,,3.022893889,1.19374347,-13.47946242,-28.45728486,1.511727171,Failure
2.507219278,1.65109363,6.92491E-05,-0.000931102,,,,,,3.023243158,1.524082783,-10.01086789,-23.1145583,1.131957652,Failure
2.510471282,0.103058393,1.19646E-05,-7.71E-05,,,,,,3.024323372,2.589186982,-3.340986479,-6.232702895,0.954139413,Elastic
2.51109719,2.850416855,-1.81E-05,-0.001168651,,,,,,3.025004386,1.245134172,-12.9269551,-27.61146194,1.442901471,Failure
2.51109719,2.850416855,-1.81E-05,-0.001168651,,,,,,3.029042236,2.40527292,-3.732084956,-9.184958473,1.025728906,Elastic
2.514747178,0.30917518,3.27983E-05,-0.000224079,,,,,,3.02920357,2.704712419,-3.193046544,-4.368631494,0.918937482,Elastic
2.514747178,0.30917518,3.27983E-05,-0.000224079,,,,,,3.03236909,1.730258577,-7.953450971,-19.87658127,1.049893136,Failure
2.514750581,1.844701399,6.15906E-05,-0.000995239,,,,,,3.035236812,2.370331716,-3.832819863,-9.730528607,1.046397217,Elastic
2.514750581,1.844701399,6.15906E-05,-0.000995239,,,,,,3.037760288,0.204037815,-24.56134629,-45.06776695,3.245743396,Failure
2.519078649,0.516876762,4.96424E-05,-0.00036206,,,,,,3.038130019,1.894021442,-6.347251352,-17.33647982,1.011547613,Failure
2.519078649,0.516876762,4.96424E-05,-0.00036206,,,,,,3.041048063,0.355571001,-22.88988706,-42.53696685,3.036149951,Failure
2.524244,0.723118544,6.23196E-05,-0.000488799,,,,,,3.041210527,2.2150368,-4.408924828,-12.20787458,1.076979276,Elastic
2.530315111,2.04359087,5.07953E-05,-0.00105022,,,,,,3.043460232,0.458172075,-21.74336003,-40.81006519,2.879874343,Failure
2.530315111,2.04359087,5.07953E-05,-0.00105022,,,,,,3.047291611,0.609450519,-20.03717625,-38.25268604,2.627888888,Failure
2.530995267,0.929078609,7.10444E-05,-0.00060493,,,,,,3.048576103,2.302859741,-4.055950016,-10.77809247,1.084223346,Elastic
2.53231761,2.551533109,1.01375E-05,-0.00114492,,,,,,3.054011368,2.599206403,-3.315204113,-5.986007009,1.007850805,Elastic
2.53231761,2.551533109,1.01375E-05,-0.00114492,,,,,,3.056270088,2.819565319,-3.026173741,-2.494592715,0.939977938,Elastic
2.535287505,2.925208428,-2.59E-05,-0.001167769,,,,,,3.057192555,2.06514546,-5.163824386,-14.55424004,1.087402743,Elastic
2.539332448,1.134756958,7.58965E-05,-0.000710313,,,,,,3.059240378,2.018075811,-5.509184351,-15.29255138,1.083032009,Elastic
2.539332448,1.134756958,7.58965E-05,-0.000710313,,,,,,3.059313103,2.894626908,-2.893766126,-1.419292693,1.000336282,Elastic
2.541245192,2.396495772,2.41432E-05,-0.00112273,,,,,,3.060188705,1.016034966,-15.39157806,-31.30968847,1.870327027,Failure
2.541245192,2.396495772,2.41432E-05,-0.00112273,,,,,,3.065935638,1.166715434,-13.7053409,-28.76404949,1.611500484,Failure
2.542844403,2.217288973,3.88379E-05,-0.001089566,,,,,,3.069906315,2.771720209,-3.131403899,-3.206879346,1.002417612,Elastic
2.542844403,2.217288973,3.88379E-05,-0.001089566,,,,,,3.070240524,1.26878204,-12.57050922,-27.03742225,1.453437406,Failure
2.543724901,2.705902043,-4.67E-06,-0.00115844,,,,,,3.071866938,2.488355052,-3.51096299,-7.716795879,1.079975784,Elastic
2.543724901,2.705902043,-4.67E-06,-0.00115844,,,,,,3.076946718,2.945384751,-2.688630633,-0.780287089,1.196225508,Elastic
2.549583087,1.341319716,7.69483E-05,-0.000805318,,,,,,3.077198815,1.419335798,-11.01611133,-24.62825957,1.316496244,Failure
2.549583087,1.341319716,7.69483E-05,-0.000805318,,,,,,3.085604068,0.3809748,-22.54523888,-41.96077425,3.059453283,Failure
2.559477821,3,-3.40E-05,-0.001165029,,,,,,3.086726754,0.431929445,-21.97797224,-41.10720204,2.981854801,Failure
2.559859716,1.545847748,7.41986E-05,-0.000888635,,,,,,3.08847612,2.087907858,-5.053578954,-14.0958418,1.158244612,Elastic
2.563941498,2.775625283,-1.19E-05,-0.001160853,,,,,,3.090104333,2.74875173,-3.132394184,-3.50744875,1.046981083,Elastic
2.563941498,2.775625283,-1.19E-05,-0.001160853,,,,,,3.094366828,0.10143844,-25.60407853,-46.57262035,3.462463959,Failure
2.566666667,0,0,0,,,,,,3.095555122,1.834047012,-6.888947983,-18.12378315,1.162433855,Failure
2.568763682,1.744915649,6.79203E-05,-0.000959414,,,,,,3.098513971,2.170706538,-4.616392331,-12.75277513,1.191723687,Elastic
2.570942563,0.206116787,2.35662E-05,-0.000151343,,,,,,3.098967896,0.25900222,-23.87598198,-43.94798487,3.25820832,Failure
2.574551708,2.62618341,2.90051E-06,-0.001148958,,,,,,3.101554934,2.498374473,-3.479741107,-7.457734653,1.132031705,Elastic
2.574551708,2.62618341,2.90051E-06,-0.001148958,,,,,,3.102229547,1.991487688,-5.662834236,-15.55572602,1.160567703,Elastic
2.57521846,0.412233573,4.28698E-05,-0.000292828,,,,,,3.10480583,2.411773753,-3.692463228,-8.846155744,1.164335208,Elastic
2.57521846,0.412233573,4.28698E-05,-0.000292828,,,,,,3.105576939,0.553168344,-20.58085102,-38.99640114,2.800008077,Failure
2.57521846,0.412233573,4.28698E-05,-0.000292828,,,,,,3.108041555,2.284308042,-4.116296598,-10.8960031,1.200081178,Elastic
2.57521846,0.412233573,4.28698E-05,-0.000292828,,,,,,3.108385047,0.710495029,-18.78371448,-36.31769979,2.515248668,Failure
2.57521846,0.412233573,4.28698E-05,-0.000292828,,,,,,3.109904214,0.021625502,-26.45285343,-47.83954202,3.587817829,Failure
2.57521846,0.412233573,4.28698E-05,-0.000292828,,,,,,3.110514583,1.190781025,-13.35465218,-28.19822951,1.62120599,Failure
2.576294986,1.938523418,5.85173E-05,-0.001018394,,,,,,3.112159473,2.370294704,-3.81396657,-9.492379005,1.189203188,Elastic
2.576294986,1.938523418,5.85173E-05,-0.001018394,,,,,,3.112708972,1.241456929,-12.83725301,-27.39920985,1.571908274,Failure
2.580383811,0.618475355,5.8003E-05,-0.000424264,,,,,,3.114796903,0.912630559,-16.46453525,-32.86285738,2.129688927,Failure
2.583479289,2.471146073,1.77781E-05,-0.001130076,,,,,,3.117374733,2.644133264,-3.2359506,-5.063044529,1.1221622,Elastic
2.585549162,0.824717137,6.90041E-05,-0.000545382,,,,,,3.121948297,1.069279902,-14.6837564,-30.19178108,1.845080272,Failure
2.585549162,0.824717137,6.90041E-05,-0.000545382,,,,,,3.122021426,2.591706975,-3.304255857,-5.884592445,1.143059877,Elastic
2.588131813,2.850416855,-2.00E-05,-0.001161501,,,,,,3.122348045,2.863109437,-3.026060516,-1.706158368,1.210334571,Elastic
2.588742685,2.304024004,3.26751E-05,-0.001102659,,,,,,3.123375718,2.081105914,-5.103342286,-14.10671388,1.235077597,Elastic
2.590341896,2.124817205,4.67617E-05,-0.001065188,,,,,,3.123555327,2.669741549,-3.208422922,-4.638329235,1.13361608,Elastic
2.590341896,2.124817205,4.67617E-05,-0.001065188,,,,,,3.127574275,0.789768023,-17.84461536,-34.9019842,2.38473152,Failure
2.593886344,1.030395485,7.60332E-05,-0.000655603,,,,,,3.127912764,2.164976703,-4.643657532,-12.75322035,1.249799697,Elastic
2.602223526,1.236073834,7.90775E-05,-0.000755233,,,,,,3.128941209,0.83286098,-17.34834532,-34.16392239,2.301048964,Failure
2.602223526,1.236073834,7.90775E-05,-0.000755233,,,,,,3.134520953,1.361859405,-11.54543872,-25.38979903,1.474212768,Failure
2.602223526,1.236073834,7.90775E-05,-0.000755233,,,,,,3.136501072,0.280401924,-23.58456486,-43.45895144,3.277904974,Failure
2.602223526,1.236073834,7.90775E-05,-0.000755233,,,,,,3.137440348,2.278578207,-4.134003604,-10.88981724,1.254889471,Elastic
2.602223526,1.236073834,7.90775E-05,-0.000755233,,,,,,3.140048744,2.423667908,-3.649262635,-8.529651406,1.22468239,Elastic
2.602223526,1.236073834,7.90775E-05,-0.000755233,,,,,,3.140577046,1.518461271,-9.964307726,-22.90902743,1.392953087,Failure
2.612322128,2.925208428,-2.85E-05,-0.001160336,,,,,,3.142023878,0.531062025,-20.76868011,-39.23272292,2.883312131,Failure
2.612500154,1.440601866,7.82685E-05,-0.000843564,,,,,,3.147059071,2.36349276,-3.826484612,-9.479291223,1.253915298,Elastic
2.616785805,2.70083371,-5.00E-06,-0.001151084,,,,,,3.148713346,2.014228911,-5.529184574,-15.1099611,1.297026218,Elastic
2.616785805,2.70083371,-5.00E-06,-0.001151084,,,,,,3.149702977,1.724637065,-7.928922512,-19.6920743,1.32872469,Failure
2.616785805,2.70083371,-5.00E-06,-0.001151084,,,,,,3.151012651,2.711827399,-3.171923972,-3.869225706,1.194884654,Elastic
2.616785805,2.70083371,-5.00E-06,-0.001151084,,,,,,3.152206485,2.0559032,-5.266061609,-14.42264358,1.293950486,Elastic
2.616785805,2.70083371,-5.00E-06,-0.001151084,,,,,,3.155380054,2.828045779,-3.122887763,-2.104859056,1.28845812,Elastic
2.616785805,2.70083371,-5.00E-06,-0.001151084,,,,,,3.157822145,1.888286946,-6.477341268,-17.05092555,1.298053009,Elastic
2.622776783,1.645129898,7.36065E-05,-0.000921156,,,,,,3.15848423,2.904615995,-3.119654598,-1.024407723,1.511257458,Elastic
2.622776783,1.645129898,7.36065E-05,-0.000921156,,,,,,3.15877636,2.513755924,-3.43090076,-7.000559495,1.233171682,Elastic
2.625713387,2.545796373,1.0744E-05,-0.001135532,,,,,,3.159500798,1.089552322,-14.38746425,-29.71488048,1.848744008,Failure
2.627137948,0.103058393,1.26719E-05,-7.66E-05,,,,,,3.161462435,1.596933304,-9.187037169,-21.6548159,1.413189293,Failure
2.630308087,1.838737668,6.56392E-05,-0.000984768,,,,,,3.163407978,1.640887598,-8.761032877,-20.97490689,1.410347123,Failure
2.631413845,0.30917518,3.46916E-05,-0.000222557,,,,,,3.164444102,2.396487196,-3.719791311,-8.878839988,1.275922739,Elastic
2.631413845,0.30917518,3.46916E-05,-0.000222557,,,,,,3.17029561,1.338841223,-11.71199439,-25.6114734,1.5527394,Failure
2.634640968,2.390759036,2.56423E-05,-0.001113274,,,,,,3.172190086,0.126286973,-25.23100848,-45.89715106,3.542011585,Failure
2.634640968,2.390759036,2.56423E-05,-0.001113274,,,,,,3.175578073,2.805077301,-3.146204875,-2.346342744,1.324408287,Elastic
2.636240179,2.211552237,4.1141E-05,-0.001080217,,,,,,3.179111035,2.188159942,-4.525714535,-12.20467096,1.343696531,Elastic
2.636512444,3,-3.74E-05,-0.001157299,,,,,,3.184603058,0.683872328,-18.95476558,-36.48682676,2.653818496,Failure
2.636523622,0.513832166,5.22565E-05,-0.000357537,,,,,,3.186476611,2.275982883,-4.135379094,-10.75124262,1.342921029,Elastic
2.636523622,0.513832166,5.22565E-05,-0.000357537,,,,,,3.189876466,2.1336815,-4.80518141,-13.04715425,1.367173803,Elastic
2.63783939,2.032345437,5.44212E-05,-0.001038546,,,,,,3.192585573,0.935523323,-16.06100587,-32.18513757,2.172385476,Failure
2.63783939,2.032345437,5.44212E-05,-0.001038546,,,,,,3.19697926,1.907443742,-6.31505472,-16.63498451,1.372390886,Elastic
2.63783939,2.032345437,5.44212E-05,-0.001038546,,,,,,3.198121184,0.383970593,-22.34676841,-41.51349514,3.207317568,Failure
2.63783939,2.032345437,5.44212E-05,-0.001038546,,,,,,3.199066915,0.426893868,-21.85801164,-40.78466262,3.134325982,Failure
2.63783939,2.032345437,5.44212E-05,-0.001038546,,,,,,3.202411953,2.463783582,-3.529647968,-7.63094709,1.324829922,Elastic
2.63783939,2.032345437,5.44212E-05,-0.001038546,,,,,,3.206917663,2.336871057,-3.901181661,-9.67821675,1.36504755,Elastic
2.640976121,2.775625283,-1.33E-05,-0.001153192,,,,,,3.209723263,0.147686676,-24.94423192,-45.41128742,3.564005465,Failure
2.640976121,2.775625283,-1.33E-05,-0.001153192,,,,,,3.213816634,0.304417106,-23.21331637,-42.79109933,3.352288733,Failure
2.641688973,0.720073948,6.56973E-05,-0.000483363,,,,,,3.214162985,2.112451187,-4.920837886,-13.298887,1.412402888,Elastic
2.648440239,0.926034013,7.49787E-05,-0.000598573,,,,,,3.216502521,1.49008106,-10.19142768,-23.15997714,1.581398928,Failure
2.656777421,1.131712362,8.01921E-05,-0.000703035,,,,,,3.217090607,2.755371517,-3.185997867,-2.899175245,1.381049886,Elastic
2.656777421,1.131712362,8.01921E-05,-0.000703035,,,,,,3.217694086,2.871990759,-3.276349216,-1.115333503,1.591132966,Elastic
2.665140593,1.335355984,8.13565E-05,-0.000795973,,,,,,3.218252759,0.505756714,-20.93377539,-39.38246008,3.023482332,Failure
2.665140593,1.335355984,8.13565E-05,-0.000795973,,,,,,3.220891307,2.557797612,-3.339799394,-6.022430351,1.338984406,Elastic
2.665166436,2.850416855,-2.20E-05,-0.001153531,,,,,,3.221049996,0.661766009,-19.14689108,-36.72911708,2.738575631,Failure
2.665166436,2.850416855,-2.20E-05,-0.001153531,,,,,,3.2215625,2.364664976,-3.80373945,-9.162912933,1.382823972,Elastic
2.667947484,2.620446674,3.01781E-06,-0.001139065,,,,,,3.221894452,1.190485591,-13.21036966,-27.85529365,1.80643255,Failure
2.667947484,2.620446674,3.01781E-06,-0.001139065,,,,,,3.222962163,2.44088704,-3.581112019,-7.912882285,1.365920158,Elastic
2.675417222,1.539884017,7.86267E-05,-0.000878571,,,,,,3.223061352,0.025671847,-26.26085299,-47.3876361,3.742498098,Failure
2.676875066,2.465409336,1.88849E-05,-0.001120112,,,,,,3.223742966,1.23317406,-12.74875362,-27.14928893,1.753305488,Failure
2.682138462,2.298287268,3.46295E-05,-0.001092763,,,,,,3.227863956,1.746762028,-7.655681997,-19.14687482,1.498299291,Failure
2.683333333,0,0,0,,,,,,3.230138074,0.955795743,-15.76282835,-31.70271227,2.176631857,Failure
2.683737673,2.119080469,4.94045E-05,-0.001055489,,,,,,3.236335699,1.111126525,-14.02778984,-29.090545,1.922452357,Failure
2.683737673,2.119080469,4.94045E-05,-0.001055489,,,,,,3.239900733,0.783071697,-17.71546847,-34.59083013,2.52116301,Failure
2.684321188,1.738951917,7.21564E-05,-0.000948698,,,,,,3.241523433,0.834227772,-17.11625406,-33.70626939,2.414971123,Failure
2.68760923,0.206116787,2.48944E-05,-0.000150291,,,,,,3.241671354,2.844724651,-3.302620022,-1.373149425,1.588377978,Elastic
2.68760923,0.206116787,2.48944E-05,-0.000150291,,,,,,3.245006497,1.311364733,-11.93213067,-25.85329852,1.732877408,Failure
2.689356751,2.925208428,-3.12E-05,-0.001152059,,,,,,3.245265772,2.600270526,-3.280713649,-5.217860432,1.38126664,Elastic
2.689356751,2.925208428,-3.12E-05,-0.001152059,,,,,,3.247219471,2.245304275,-4.252281367,-11.00143879,1.452255689,Elastic
2.691852491,1.932559687,6.23405E-05,-0.001007103,,,,,,3.249882532,2.677918035,-3.219582201,-3.944520686,1.404767235,Elastic
2.691852491,1.932559687,6.23405E-05,-0.001007103,,,,,,3.251446365,2.625878811,-3.254858188,-4.769612955,1.394157988,Elastic
2.691954358,0.410903854,4.5124E-05,-0.00028982,,,,,,3.252277177,1.467062878,-10.4169911,-23.45097109,1.689501707,Failure
2.691954358,0.410903854,4.5124E-05,-0.00028982,,,,,,3.255170945,2.406355434,-3.667516706,-8.328738243,1.427647847,Elastic
2.697828784,0.615430759,6.09916E-05,-0.000419149,,,,,,3.266796787,2.005891855,-5.579610705,-14.82066554,1.519796261,Elastic
2.697828784,0.615430759,6.09916E-05,-0.000419149,,,,,,3.267021071,1.765918824,-7.539227263,-18.69227206,1.583218166,Elastic
2.702994135,0.821672541,7.26502E-05,-0.000539289,,,,,,3.267617356,0.051075647,-25.92465656,-46.81172357,3.772964836,Failure
2.702994135,0.821672541,7.26502E-05,-0.000539289,,,,,,3.269739344,2.040997525,-5.351058369,-14.23692013,1.519052616,Elastic
2.709572163,2.701200698,-6.10E-06,-0.001141154,,,,,,3.270423174,0.201817731,-24.27058128,-44.30228328,3.578359528,Failure
2.709572163,2.701200698,-6.10E-06,-0.001141154,,,,,,3.273977267,2.847733892,-3.385289508,-1.099173184,1.67199912,Elastic
2.711331317,1.027350889,8.01382E-05,-0.000648518,,,,,,3.274027581,1.587511171,-9.215646649,-21.52092694,1.688863085,Failure
2.711331317,1.027350889,8.01382E-05,-0.000648518,,,,,,3.276337154,1.639689748,-8.662259519,-20.66757144,1.637493639,Failure
2.713547067,3,-4.09E-05,-0.001148707,,,,,,3.276435092,2.77048641,-3.267226429,-2.310226827,1.538424531,Elastic
2.713547067,3,-4.09E-05,-0.001148707,,,,,,3.27797669,2.207599341,-4.418025216,-11.48256756,1.509780001,Elastic
2.713547067,3,-4.09E-05,-0.001148707,,,,,,3.279228858,1.92390553,-6.177846824,-16.08570885,1.543206603,Elastic
2.718638359,1.231497926,8.3407E-05,-0.000746523,,,,,,3.279346194,0.606801224,-19.67587548,-37.4416558,2.910119708,Failure
2.718638359,1.231497926,8.3407E-05,-0.000746523,,,,,,3.282759426,2.520752774,-3.393469135,-6.316714104,1.449478676,Elastic
2.719109163,2.540059637,1.14098E-05,-0.001125015,,,,,,3.283167255,0.756829067,-17.93491214,-34.86836254,2.617806568,Failure
2.719109163,2.540059637,1.14098E-05,-0.001125015,,,,,,3.285490303,2.297187393,-4.029331455,-9.977397982,1.502462899,Elastic
2.728036745,2.3850223,2.71906E-05,-0.001102781,,,,,,3.286102379,0.858293363,-16.77814516,-33.15135778,2.427605789,Failure
2.728036745,2.3850223,2.71906E-05,-0.001102781,,,,,,3.290943896,1.007722118,-15.05986111,-30.59076596,2.150370479,Failure
2.72805766,1.434638135,8.26907E-05,-0.000833463,,,,,,3.293031471,2.08857521,-5.052489479,-13.36336476,1.553391627,Elastic
2.72805766,1.434638135,8.26907E-05,-0.000833463,,,,,,3.30013514,2.324981313,-3.921134141,-9.448015663,1.518226762,Elastic
2.729635956,2.205815501,4.34828E-05,-0.00106994,,,,,,3.302263209,2.186369028,-4.517067965,-11.71957092,1.552400626,Elastic
2.729635956,2.205815501,4.34828E-05,-0.00106994,,,,,,3.303309636,2.497856232,-3.434621235,-6.582229671,1.485047312,Elastic
2.733762478,2.775992271,-1.50E-05,-0.00114281,,,,,,3.303649012,2.77302134,-3.303094813,-2.085966128,1.591345148,Elastic
2.738334289,1.639166167,7.79522E-05,-0.000910274,,,,,,3.308384728,1.410490207,-10.9233431,-24.1603516,1.838711565,Failure
2.738334289,1.639166167,7.79522E-05,-0.000910274,,,,,,3.311222671,0.0254038,-26.14599557,-47.08127829,3.867866305,Failure
2.743804615,0.103058393,1.33702E-05,-7.61E-05,,,,,,3.315913805,2.375676826,-3.745148429,-8.530722975,1.529214017,Elastic
2.743804615,0.103058393,1.33702E-05,-7.61E-05,,,,,,3.316496029,1.560186059,-9.415260182,-21.77631556,1.778755771,Failure
2.745865592,1.832773936,6.96982E-05,-0.000973204,,,,,,3.317285892,2.450397122,-3.536394216,-7.288990502,1.514275956,Elastic
2.745865592,1.832773936,6.96982E-05,-0.000973204,,,,,,3.318852391,2.670298101,-3.253539182,-3.660256318,1.528404002,Elastic
2.748149743,0.30784546,3.64234E-05,-0.000219996,,,,,,3.322820953,1.66243097,-8.45610428,-20.22498338,1.784362384,Failure
2.75325952,0.512502446,5.4918E-05,-0.000353898,,,,,,3.32738267,0.781632582,-17.57437539,-34.28102832,2.62335933,Failure
2.7545023,2.035467329,5.73401E-05,-0.001028524,,,,,,3.328695094,0.831940803,-16.97013328,-33.39470854,2.512119,Failure
2.7545023,2.035467329,5.73401E-05,-0.001028524,,,,,,3.329087623,0.146593875,-24.79829396,-45.01159805,3.735843153,Failure
2.757952794,2.850783843,-2.45E-05,-0.001142702,,,,,,3.330829214,0.303345836,-23.05293948,-42.38663099,3.507370886,Failure
2.759133946,0.717029352,6.89967E-05,-0.000477591,,,,,,3.333376714,1.814495583,-7.079756672,-17.63070944,1.679180518,Elastic
2.759133946,0.717029352,6.89967E-05,-0.000477591,,,,,,3.334499869,2.819880597,-3.444762117,-1.084907783,1.715509809,Elastic
2.760733842,2.620813662,2.5069E-06,-0.001128591,,,,,,3.335265339,0.504685443,-20.75426716,-38.96473195,3.166234201,Failure
2.765885212,0.922989417,7.88335E-05,-0.000591748,,,,,,3.339773823,2.565280033,-3.323966724,-5.258412135,1.535349771,Elastic
2.765885212,0.922989417,7.88335E-05,-0.000591748,,,,,,3.340414357,0.660673207,-18.94160941,-36.2851751,2.871278441,Failure
2.770270842,2.4596726,2.00337E-05,-0.001109026,,,,,,3.342372328,2.264848427,-4.146979263,-10.22651593,1.595364657,Elastic
2.770270842,2.4596726,2.00337E-05,-0.001109026,,,,,,3.344742563,2.76726208,-3.348855602,-1.880126765,1.648441251,Elastic
2.773192255,1.127136454,8.43528E-05,-0.000694471,,,,,,3.346066311,2.672833031,-3.268576323,-3.438089785,1.570384632,Elastic
2.775534239,2.292550532,3.66157E-05,-0.001081855,,,,,,3.347110867,2.595679881,-3.294841819,-4.711123464,1.547912666,Elastic
2.775534239,2.292550532,3.66157E-05,-0.001081855,,,,,,3.34823747,0.951246329,-15.58491959,-31.31407386,2.314574924,Failure
2.781555426,1.330780077,8.5725E-05,-0.000786451,,,,,,3.349480328,0.382584874,-22.12440211,-40.97832571,3.39783343,Failure
2.782143109,2.925575416,-3.45E-05,-0.001140803,,,,,,3.350426058,0.425508149,-21.63421132,-40.24885202,3.32508367,Failure
2.782143109,2.925575416,-3.45E-05,-0.001140803,,,,,,3.352108237,1.106666746,-13.91161207,-28.77184001,2.110182768,Failure
2.7851603,3,-4.42E-05,-0.001139872,,,,,,3.35975736,2.297842864,-4.008605187,-9.586352893,1.611578484,Elastic
2.790974727,1.533920285,8.30098E-05,-0.000867636,,,,,,3.360779036,1.306904954,-11.89169,-25.60217961,1.997205751,Failure
2.790974727,1.533920285,8.30098E-05,-0.000867636,,,,,,3.360884323,1.582791264,-9.220087399,-21.35980002,1.907750603,Failure
2.799878693,1.732988186,7.63692E-05,-0.000936945,,,,,,3.361139908,2.145719543,-4.716716645,-12.10020558,1.650089521,Elastic
2.799878693,1.732988186,7.63692E-05,-0.000936945,,,,,,3.363498505,2.369908174,-3.751426553,-8.366746081,1.597920851,Elastic
2.8,0,0,0,,,,,,3.36416918,2.538099322,-3.3601104,-5.559667192,1.568863306,Elastic
2.8,0,0,0,,,,,,3.364899674,1.632857598,-8.673243568,-20.5095152,1.866375425,Failure
2.8,0,0,0,,,,,,3.365273338,2.466561029,-3.490225078,-6.746065947,1.578856524,Elastic
2.800400583,2.122202361,5.19076E-05,-0.001044445,,,,,,3.365819955,0.124968373,-24.98758415,-45.24154595,3.816227395,Failure
2.802358521,2.701567687,-7.25E-06,-0.001129891,,,,,,3.370376572,1.462513464,-10.35580743,-23.16361122,1.946611014,Failure
2.802358521,2.701567687,-7.25E-06,-0.001129891,,,,,,3.371203095,2.239645713,-4.249442577,-10.49118221,1.642329756,Elastic
2.804345128,0.204787067,2.60454E-05,-0.000148219,,,,,,3.371649565,1.184716738,-13.0872559,-27.4642222,2.082869895,Failure
2.808515401,1.935681579,6.5616E-05,-0.000996992,,,,,,3.373498079,1.227405207,-12.64876569,-26.78243177,2.049954762,Failure
2.808690257,0.409574134,4.73174E-05,-0.000286635,,,,,,3.377534487,2.689808598,-3.291245281,-2.932335669,1.620933644,Elastic
2.808690257,0.409574134,4.73174E-05,-0.000286635,,,,,,3.377660627,0.681567242,-18.63488647,-35.7861479,2.873171001,Failure
2.811895521,2.540426625,1.14255E-05,-0.001114053,,,,,,3.37941678,2.598689122,-3.296580055,-4.447324272,1.591822807,Elastic
2.814564682,0.614101039,6.3991E-05,-0.000414814,,,,,,3.384116806,0.929047407,-15.78950738,-31.5746754,2.403450551,Failure
2.820439108,0.818627945,7.61988E-05,-0.000532789,,,,,,3.391687722,2.368034225,-3.750346842,-8.234513085,1.635270545,Elastic
2.820439108,0.818627945,7.61988E-05,-0.000532789,,,,,,3.392074746,1.752758011,-7.589132661,-18.38225128,1.810561895,Elastic
2.820439108,0.818627945,7.61988E-05,-0.000532789,,,,,,3.393221058,2.295618281,-4.008192797,-9.436194389,1.657077364,Elastic
2.820439108,0.818627945,7.61988E-05,-0.000532789,,,,,,3.393462555,2.464687081,-3.48897749,-6.60383886,1.615003115,Elastic
2.820439108,0.818627945,7.61988E-05,-0.000532789,,,,,,3.397632879,2.535874739,-3.361720752,-5.381173629,1.610965638,Elastic
2.820439108,0.818627945,7.61988E-05,-0.000532789,,,,,,3.401818659,1.911004018,-6.255938319,-15.76562847,1.767620638,Elastic
2.821432521,2.379285564,2.87615E-05,-0.001091183,,,,,,3.406509767,2.2593957,-4.153398205,-9.96469987,1.684444561,Elastic
2.821432521,2.379285564,2.87615E-05,-0.001091183,,,,,,3.407224576,0.277923403,-23.22437937,-42.5314725,3.645751981,Failure
2.821432521,2.379285564,2.87615E-05,-0.001091183,,,,,,3.407768472,1.481555681,-10.14371748,-22.74840764,2.03474697,Failure
2.821432521,2.379285564,2.87615E-05,-0.001091183,,,,,,3.407777504,2.735744609,-3.362079311,-1.917765313,1.683941075,Elastic
2.821432521,2.379285564,2.87615E-05,-0.001091183,,,,,,3.410368161,2.640682106,-3.290524858,-3.520271677,1.635558597,Elastic
2.821432521,2.379285564,2.87615E-05,-0.001091183,,,,,,3.410961287,2.582916868,-3.31095037,-4.49598406,1.626474966,Elastic
2.826548836,2.776359259,-1.68E-05,-0.001131001,,,,,,3.412747381,0.528583504,-20.34639585,-38.26043443,3.21029141,Failure
2.82774615,1.022774982,8.4069E-05,-0.000640173,,,,,,3.415621272,2.075673699,-5.106778541,-12.97352509,1.744721302,Elastic
2.835053193,1.226922019,8.76436E-05,-0.000737144,,,,,,3.416037381,2.779111841,-3.458372007,-1.098209481,1.731792684,Elastic
2.835053193,1.226922019,8.76436E-05,-0.000737144,,,,,,3.421315688,2.558178564,-3.333852509,-4.843058062,1.636650423,Elastic
2.844472493,1.430062227,8.70452E-05,-0.000823049,,,,,,3.424229963,0.021399703,-26.04510325,-46.75196004,4.032468586,Failure
2.846298866,2.208937393,4.55028E-05,-0.001057803,,,,,,3.425370225,1.989203378,-5.666416271,-14.35373497,1.778269627,Elastic
2.850739151,2.851150832,-2.69E-05,-0.001130341,,,,,,3.427316884,2.173208215,-4.554215643,-11.28515058,1.735370816,Elastic
2.850739151,2.851150832,-2.69E-05,-0.001130341,,,,,,3.427355307,1.079234055,-14.11048818,-28.96653946,2.273697814,Failure
2.8535202,2.62118065,1.93553E-06,-0.001116784,,,,,,3.427521102,1.727845935,-7.829333285,-18.65198882,1.890252681,Elastic
2.853756342,2.925575416,-3.70E-05,-0.001131016,,,,,,3.428312783,2.024309049,-5.429515481,-13.75643231,1.775479999,Elastic
2.853891794,1.633202436,8.22399E-05,-0.000898419,,,,,,3.436940686,2.627395844,-3.296193978,-3.548243886,1.657248139,Elastic
2.853891794,1.633202436,8.22399E-05,-0.000898419,,,,,,3.438150119,1.328522956,-11.63094691,-25.03619044,2.176882332,Failure
2.853891794,1.633202436,8.22399E-05,-0.000898419,,,,,,3.438557954,0.783781417,-17.32543216,-33.79464437,2.722112662,Failure
2.853891794,1.633202436,8.22399E-05,-0.000898419,,,,,,3.439663516,0.826160157,-16.84706005,-33.0804907,2.651221478,Failure
2.853891794,1.633202436,8.22399E-05,-0.000898419,,,,,,3.442723013,0.100379291,-25.15505417,-45.37488423,3.955047631,Failure
2.853891794,1.633202436,8.22399E-05,-0.000898419,,,,,,3.443956908,0.256297901,-23.41284672,-42.75733943,3.727475817,Failure
2.856773533,3,-4.75E-05,-0.001130043,,,,,,3.448140573,2.366886722,-3.738086146,-7.904227916,1.702177199,Elastic
2.860540513,0.101728674,1.38799E-05,-7.45E-05,,,,,,3.449488374,2.700101659,-3.340546994,-2.192344341,1.690011723,Elastic
2.860540513,0.101728674,1.38799E-05,-7.45E-05,,,,,,3.449512659,2.441607018,-3.529684813,-6.628342399,1.682617126,Elastic
2.862528502,1.835895829,7.32514E-05,-0.000963091,,,,,,3.449993652,0.549477539,-20.03463963,-37.75542576,3.207466086,Failure
2.8630572,2.460039589,2.05181E-05,-0.001097639,,,,,,3.454056755,0.704808582,-18.21621581,-35.0827836,2.899902513,Failure
2.8630572,2.460039589,2.05181E-05,-0.001097639,,,,,,3.457058588,2.189845249,-4.461671788,-10.83233685,1.768080883,Elastic
2.864885642,0.306515741,3.80954E-05,-0.000217311,,,,,,3.459242601,0.903593946,-15.93452182,-31.70410408,2.531763975,Failure
2.869995419,0.511172727,5.74963E-05,-0.000350025,,,,,,3.461847598,0.377530225,-22.00387455,-40.63897737,3.544314148,Failure
2.87116521,2.038589222,6.01699E-05,-0.00101705,,,,,,3.462970284,0.42848487,-21.418068,-39.77111066,3.45503019,Failure
2.87116521,2.038589222,6.01699E-05,-0.00101705,,,,,,3.463234644,1.057035134,-14.27672961,-29.17396494,2.349063531,Failure
2.875869844,0.715699632,7.22675E-05,-0.00047249,,,,,,3.464752402,2.31403797,-3.915749295,-8.691403827,1.736712646,Elastic
2.875869844,0.715699632,7.22675E-05,-0.00047249,,,,,,3.467926898,2.486912889,-3.429961917,-5.728602995,1.689608432,Elastic
2.882300046,0.918413509,8.24774E-05,-0.000583692,,,,,,3.470635569,1.578264184,-9.22553951,-20.90300576,2.073665177,Elastic
2.882300046,0.918413509,8.24774E-05,-0.000583692,,,,,,3.474018028,1.620439162,-8.835452444,-20.20421949,2.050180227,Elastic
2.889607088,1.122560546,8.83934E-05,-0.000685308,,,,,,3.475542018,1.347565174,-11.38170286,-24.59041671,2.225023853,Failure
2.892197148,2.295672424,3.80788E-05,-0.001068547,,,,,,3.475946572,2.283524719,-4.03112412,-9.136300493,1.759088001,Elastic
2.892197148,2.295672424,3.80788E-05,-0.001068547,,,,,,3.476060899,2.686815397,-3.336105532,-2.202606224,1.697516478,Elastic
2.895144879,2.701934675,-8.46E-06,-0.001117172,,,,,,3.476660506,2.746392273,-3.431502527,-1.140714954,1.724075904,Elastic
2.895144879,2.701934675,-8.46E-06,-0.001117172,,,,,,3.480606373,1.877594453,-6.494406017,-15.91050472,1.899526327,Elastic
2.89797026,1.326204169,8.99835E-05,-0.000776173,,,,,,3.48277087,1.176441002,-13.0691608,-27.24211748,2.321809329,Failure
2.899500217,2.382750063,2.9188E-05,-0.001081864,,,,,,3.48377839,1.499811272,-9.923115133,-22.21323416,2.194248244,Elastic
2.899500217,2.382750063,2.9188E-05,-0.001081864,,,,,,3.48496526,1.227116906,-12.60650645,-26.48128932,2.334122681,Failure
2.904681879,2.540793614,1.13607E-05,-0.001101779,,,,,,3.487876871,2.50570123,-3.394353532,-5.260674299,1.701823691,Elastic
2.904681879,2.540793614,1.13607E-05,-0.001101779,,,,,,3.497790098,2.082601898,-5.041705033,-12.38685423,1.851308982,Elastic
2.907389561,1.529344378,8.7295E-05,-0.000856244,,,,,,3.499644444,1.697640854,-8.07831621,-18.78423877,2.016021171,Elastic
2.907389561,1.529344378,8.7295E-05,-0.000856244,,,,,,3.500648908,2.223758643,-4.283191123,-9.989705844,1.806423146,Elastic
2.916541603,1.736110078,8.01231E-05,-0.00092692,,,,,,3.501242537,2.595244919,-3.30681955,-3.602962729,1.697659389,Elastic
2.916541603,1.736110078,8.01231E-05,-0.00092692,,,,,,3.50217786,2.627486912,-3.304351173,-3.029009704,1.697594227,Elastic
2.916666667,0,0,0,,,,,,3.503129053,0.201907396,-23.93783449,-43.4517869,3.887169187,Failure
2.917063492,2.125324253,5.42949E-05,-0.001031823,,,,,,3.505452913,0.351858378,-22.22905997,-40.90778302,3.642268859,Failure
2.919335194,2.776726248,-1.86E-05,-0.001117627,,,,,,3.5071857,0.453288385,-21.05163897,-39.1708102,3.456755802,Failure
2.919335194,2.776726248,-1.86E-05,-0.001117627,,,,,,3.508205014,2.730620019,-3.413436323,-1.138456901,1.717253276,Elastic
2.921081027,0.203457347,2.71434E-05,-0.000146074,,,,,,3.509964897,2.574405817,-3.31510144,-3.897538894,1.703869899,Elastic
2.921081027,0.203457347,2.71434E-05,-0.000146074,,,,,,3.5099759,0.602692802,-19.30683126,-36.60919719,3.165977252,Failure
2.922352385,2.851150832,-2.88E-05,-0.001119639,,,,,,3.516052729,1.852682377,-6.66545444,-16.11765887,1.952853098,Elastic
2.925178311,1.938803471,6.87795E-05,-0.00098549,,,,,,3.520406942,1.002538574,-14.77497003,-29.85511706,2.497397801,Failure
2.925369576,2.925575416,-3.93E-05,-0.001120148,,,,,,3.52113778,2.388674626,-3.647047499,-7.035706992,1.76324198,Elastic
2.925426155,0.408244414,4.9427E-05,-0.000283273,,,,,,3.525363586,1.150088442,-13.33273826,-27.55774565,2.448902182,Failure
2.925426155,0.408244414,4.9427E-05,-0.000283273,,,,,,3.527531803,2.099238932,-4.931973089,-11.92360616,1.880591375,Elastic
2.928386767,3,-5.06E-05,-0.001119159,,,,,,3.529353553,1.249722111,-12.30184348,-25.94001204,2.385749379,Failure
2.931300581,0.61277132,6.68818E-05,-0.000410183,,,,,,3.532420876,2.673422923,-3.332303842,-1.952575091,1.705517859,Elastic
2.931300581,0.61277132,6.68818E-05,-0.000410183,,,,,,3.536172697,1.39622602,-10.90637295,-23.68582499,2.366525372,Failure
2.936444815,0.815886635,7.95844E-05,-0.000526112,,,,,,3.542889932,1.97274525,-5.745236972,-13.94951079,1.940171727,Elastic
2.936444815,0.815886635,7.95844E-05,-0.000526112,,,,,,3.543091716,2.529737228,-3.347474107,-4.416909985,1.728334211,Elastic
2.941124895,2.463504088,2.04878E-05,-0.001087474,,,,,,3.546383071,2.014419539,-5.462089693,-13.23368622,1.932766982,Elastic
2.944160984,1.018199074,8.78552E-05,-0.0006313,,,,,,3.549686319,0.377186501,-21.86084932,-40.30155846,3.645477472,Failure
2.944160984,1.018199074,8.78552E-05,-0.0006313,,,,,,3.55029642,0.427661864,-21.27989565,-39.44318592,3.555862936,Failure
2.946306558,2.621547639,1.2596E-06,-0.001103551,,,,,,3.555130273,2.153712799,-4.614278841,-10.82177897,1.8890878,Elastic
2.946306558,2.621547639,1.2596E-06,-0.001103551,,,,,,3.559176392,2.342221251,-3.778761477,-7.562491633,1.810998125,Elastic
2.951468026,1.222346111,9.1741E-05,-0.000727082,,,,,,3.560388236,0.100379291,-24.99385511,-44.9452153,4.110969055,Failure
2.951468026,1.222346111,9.1741E-05,-0.000727082,,,,,,3.560576055,2.418443315,-3.549633393,-6.228809481,1.778093008,Elastic
2.960887327,1.42548632,9.12714E-05,-0.000811787,,,,,,3.563987028,0.256297901,-23.22825634,-42.30284746,3.873163893,Failure
2.960887327,1.42548632,9.12714E-05,-0.000811787,,,,,,3.567934016,0.547523557,-19.84681461,-37.32143005,3.337762189,Failure
2.962961775,2.212059285,4.7375E-05,-0.001043952,,,,,,3.568086389,1.79414929,-7.131994143,-16.78808202,2.047447759,Elastic
2.962961775,2.212059285,4.7375E-05,-0.001043952,,,,,,3.569005102,1.174087722,-13.01563843,-26.99312722,2.50202333,Failure
2.970229937,1.62762863,8.64302E-05,-0.000885621,,,,,,3.569673396,0.702893099,-18.01948756,-34.64966842,3.021667126,Failure
2.970229937,1.62762863,8.64302E-05,-0.000885621,,,,,,3.570370562,2.311708001,-3.883059515,-8.008336247,1.832811376,Elastic
2.970264843,2.299136924,3.88157E-05,-0.001058843,,,,,,3.57080068,1.223045487,-12.57353466,-26.26748189,2.507772007,Failure
2.97720718,0.101728674,1.45314E-05,-7.39E-05,,,,,,3.571213606,2.701523728,-3.368899684,-1.085648326,1.696552223,Elastic
2.977567912,2.386214562,2.95094E-05,-0.00107164,,,,,,3.573646115,2.245546547,-4.15393675,-9.125193739,1.866286272,Elastic
2.977567912,2.386214562,2.95094E-05,-0.00107164,,,,,,3.574859242,0.901678463,-15.76168769,-31.29130748,2.683442455,Failure
2.979191412,1.839017721,7.66674E-05,-0.000951657,,,,,,3.576433319,0.021399703,-25.84499141,-46.20461425,4.238463306,Failure
2.979191412,1.839017721,7.66674E-05,-0.000951657,,,,,,3.580526027,2.437231656,-3.494782352,-5.746002707,1.779768848,Elastic
2.98162154,0.305186021,3.96888E-05,-0.000214503,,,,,,3.581175008,1.055081152,-14.21757069,-28.85222229,2.605641589,Failure
2.98162154,0.305186021,3.96888E-05,-0.000214503,,,,,,3.581689743,2.034169526,-5.316529052,-12.67488523,1.965164164,Elastic
2.982749574,2.544258113,1.08192E-05,-0.001090707,,,,,,3.584968652,1.943171878,-5.954385197,-14.19031248,2.006497358,Elastic
2.986731317,0.509843007,5.99629E-05,-0.000345917,,,,,,3.588111409,0.781303684,-17.08151539,-33.24488266,2.892153211,Failure
2.986731317,0.509843007,5.99629E-05,-0.000345917,,,,,,3.589216971,0.823682424,-16.59996454,-32.52767644,2.82111164,Failure
2.987828119,2.041711114,6.28514E-05,-0.001004038,,,,,,3.591856471,1.338606513,-11.43734198,-24.3523638,2.497664394,Failure
2.987828119,2.041711114,6.28514E-05,-0.001004038,,,,,,3.595455818,2.641905452,-3.297749597,-1.957051699,1.699391389,Elastic
2.987931236,2.702301664,-9.81E-06,-0.001102901,,,,,,3.597801153,1.49102912,-10.00317567,-21.69348494,2.336229052,Elastic
2.987931236,2.702301664,-9.81E-06,-0.001102901,,,,,,3.601248453,0.277633856,-22.92803124,-41.7997947,3.88247871,Failure
2.987931236,2.702301664,-9.81E-06,-0.001102901,,,,,,3.601996146,2.12146474,-4.772848125,-11.05354998,1.947669053,Elastic
2.987931236,2.702301664,-9.81E-06,-0.001102901,,,,,,3.60424971,0.525936237,-20.0287881,-37.53831868,3.417090163,Failure
2.987931236,2.702301664,-9.81E-06,-0.001102901,,,,,,3.613667208,1.688858702,-8.042520422,-18.27039869,2.168719324,Elastic
2.987931236,2.702301664,-9.81E-06,-0.001102901,,,,,,3.614166653,2.028986616,-5.336197505,-12.54591517,2.001095916,Elastic
2.987931236,2.702301664,-9.81E-06,-0.001102901,,,,,,3.614716837,2.476804835,-3.396255435,-4.770147035,1.770603087,Elastic
2.990948427,2.776726248,-2.01E-05,-0.001106178,,,,,,3.617937835,1.075297713,-13.97796977,-28.40692381,2.663299652,Failure
2.990948427,2.776726248,-2.01E-05,-0.001106178,,,,,,3.618127298,1.566904217,-9.216259595,-20.29459367,2.276627817,Elastic
2.991875551,0.712958323,7.52932E-05,-0.000466257,,,,,,3.621509757,1.609079195,-8.786830835,-19.55838735,2.242883877,Elastic
2.993965618,2.851150832,-3.07E-05,-0.001107891,,,,,,3.621900262,2.613895715,-3.276370862,-2.22882742,1.701115336,Elastic
2.993965618,2.851150832,-3.07E-05,-0.001107891,,,,,,3.625946921,2.240254338,-4.151469649,-8.837926824,1.907185327,Elastic
2.996982809,2.925575416,-4.16E-05,-0.001108158,,,,,,3.626770784,1.316134605,-11.64608723,-24.50698742,2.547372405,Failure
2.996982809,2.925575416,-4.16E-05,-0.001108158,,,,,,3.627937076,2.365675345,-3.666177336,-6.631526783,1.837143584,Elastic
2.998305753,0.9156722,8.60187E-05,-0.000576154,,,,,,3.628643427,1.96172253,-5.79245225,-13.58764876,2.045435796,Elastic
3,3,-5.28E-05,-0.001107332,,,,,,3.62935411,2.11709875,-4.785111521,-10.93704003,1.973825634,Elastic
3,3,-5.28E-05,-0.001107332,,,,,,3.630622622,2.593056614,-3.272120328,-2.532200017,1.708275725,Elastic
3.006021922,1.117984639,9.22677E-05,-0.000675538,,,,,,3.632367182,1.843723716,-6.698966461,-15.55610573,2.107699735,Elastic
3.006021922,1.117984639,9.22677E-05,-0.000675538,,,,,,3.636083332,2.000411331,-5.517395461,-12.88227353,2.036054291,Elastic
3.014385093,1.321628262,9.40822E-05,-0.000765126,,,,,,3.636369674,2.544155768,-3.294042784,-3.372921649,1.733746414,Elastic
3.014385093,1.321628262,9.40822E-05,-0.000765126,,,,,,3.638053431,0.124968373,-24.60811218,-44.24201523,4.17297607,Failure
3.019192591,2.466968587,2.0329E-05,-0.00107633,,,,,,3.641225785,2.329452764,-3.780432409,-7.164494268,1.864100322,Elastic
3.023727703,1.523770572,9.14549E-05,-0.000843549,,,,,,3.645154446,0.677135528,-18.17111597,-34.7776272,3.143972114,Failure
3.024374253,2.625012138,1.5067E-07,-0.001091504,,,,,,3.651610625,0.924615693,-15.4294362,-30.65200952,2.788889331,Failure
3.024374253,2.625012138,1.5067E-07,-0.001091504,,,,,,3.651619885,2.387979171,-3.583869823,-6.047589859,1.830996404,Elastic
3.032879746,1.730536273,8.41268E-05,-0.000912965,,,,,,3.652751118,2.660754972,-3.287772053,-1.06790265,1.658395091,Elastic
3.033333333,0,0,0,,,,,,3.653304885,2.235888348,-4.15570205,-8.708727629,1.926594947,Elastic
3.033726402,2.128446145,5.65007E-05,-0.001017533,,,,,,3.661553364,0.380893998,-21.63142206,-39.80003271,3.762487662,Failure
3.033726402,2.128446145,5.65007E-05,-0.001017533,,,,,,3.662067302,0.423413535,-21.13058722,-39.06737846,3.679637838,Failure
3.037747693,0.203457347,2.83419E-05,-0.000144773,,,,,,3.669158026,1.859350452,-6.552255953,-15.04972879,2.14011172,Elastic
3.04102947,2.215523784,4.83722E-05,-0.001033937,,,,,,3.671574654,1.461237054,-10.18829828,-21.74090031,2.4324407,Elastic
3.04184122,1.941925363,7.17703E-05,-0.000972531,,,,,,3.673702695,2.324269854,-3.778257696,-6.998365534,1.879371859,Elastic
3.04184122,1.941925363,7.17703E-05,-0.000972531,,,,,,3.675314856,0.146304328,-24.31091683,-43.73875722,4.184899615,Failure
3.042162054,0.406914695,5.14279E-05,-0.000279735,,,,,,3.675678734,2.451939987,-3.406843325,-4.701403884,1.789762733,Elastic
3.042162054,0.406914695,5.14279E-05,-0.000279735,,,,,,3.677910699,0.30198766,-22.52286212,-41.08403656,3.927247619,Failure
3.042162054,0.406914695,5.14279E-05,-0.000279735,,,,,,3.677919428,1.175094282,-12.93867495,-26.60926273,2.746210539,Failure
3.042162054,0.406914695,5.14279E-05,-0.000279735,,,,,,3.679431991,1.216335421,-12.5734944,-25.90235329,2.70059834,Failure
3.042162054,0.406914695,5.14279E-05,-0.000279735,,,,,,3.680321421,0.501433459,-20.17926166,-37.65174041,3.543913313,Failure
3.042162054,0.406914695,5.14279E-05,-0.000279735,,,,,,3.68147014,0.655548207,-18.35722687,-35.00085712,3.224233032,Failure
3.047306288,0.610030011,6.95053E-05,-0.00040445,,,,,,3.683457893,2.13323331,-4.663611822,-10.26564511,2.006601008,Elastic
3.048332539,2.302601423,3.94322E-05,-0.001048257,,,,,,3.687294776,2.073742752,-5.013500427,-11.26487298,2.043954636,Elastic
3.052450522,0.813145326,8.27999E-05,-0.000519029,,,,,,3.688373453,0.944832254,-15.21961902,-30.2292585,2.870340022,Failure
3.052450522,0.813145326,8.27999E-05,-0.000519029,,,,,,3.689564718,0.0254038,-25.646278,-45.71847689,4.379153765,Failure
3.053448427,2.745476248,-1.70E-05,-0.001094041,,,,,,3.690731633,2.383700771,-3.56937463,-5.80092784,1.840302571,Elastic
3.053448427,2.745476248,-1.70E-05,-0.001094041,,,,,,3.691327284,1.707527308,-7.837152879,-17.46495908,2.253129566,Elastic
3.055635607,2.389679061,2.96982E-05,-0.001060473,,,,,,3.692849825,1.097368116,-13.69963336,-27.79981447,2.813574535,Failure
3.055635607,2.389679061,2.96982E-05,-0.001060473,,,,,,3.699137681,0.775473516,-16.94818798,-32.8983631,3.025313275,Failure
3.056465618,2.819900832,-2.79E-05,-0.00109612,,,,,,3.699525733,2.356214036,-3.648761802,-6.219460448,1.862024371,Elastic
3.059482809,2.894325416,-3.89E-05,-0.001096755,,,,,,3.699944781,1.290817354,-11.85945025,-24.49434186,2.642515525,Failure
3.060166691,1.015457765,9.14953E-05,-0.000622823,,,,,,3.700450105,0.825781737,-16.39080457,-32.05446301,2.958567749,Failure
3.060817269,2.547722612,1.01225E-05,-0.001078572,,,,,,3.701973736,2.225067058,-4.175078098,-8.522552058,1.958136298,Elastic
3.060817269,2.547722612,1.01225E-05,-0.001078572,,,,,,3.703687302,2.539060358,-3.250568341,-2.85906087,1.713704326,Elastic
3.0625,2.96875,-4.99E-05,-0.001096137,,,,,,3.705756992,2.049671446,-5.154945449,-11.54432537,2.071981933,Elastic
3.06788286,1.217770204,9.56496E-05,-0.000716334,,,,,,3.706488967,1.438765146,-10.39465659,-21.92587544,2.495561512,Elastic
3.06788286,1.217770204,9.56496E-05,-0.000716334,,,,,,3.708625766,2.44833594,-3.388630814,-4.480238785,1.788203387,Elastic
3.06788286,1.217770204,9.56496E-05,-0.000716334,,,,,,3.710888253,2.6292784,-3.221072046,-1.098661777,1.628940045,Elastic
3.06788286,1.217770204,9.56496E-05,-0.000716334,,,,,,3.721242654,2.604540096,-3.205221749,-1.467171636,1.642079384,Elastic
3.06788286,1.217770204,9.56496E-05,-0.000716334,,,,,,3.727514364,1.554553037,-9.224864456,-19.82415896,2.408122218,Elastic
3.06788286,1.217770204,9.56496E-05,-0.000716334,,,,,,3.728118128,1.723154043,-7.668466385,-16.95557009,2.282311696,Elastic
3.07722547,1.419912514,9.53278E-05,-0.000799285,,,,,,3.730133535,2.286211821,-3.883795441,-7.21533929,1.921703282,Elastic
3.085962066,2.66868007,-6.59E-06,-0.001084024,,,,,,3.730901123,1.943938207,-5.869202154,-13.17781947,2.153793403,Elastic
3.085962066,2.66868007,-6.59E-06,-0.001084024,,,,,,3.731529715,1.60461937,-8.761783068,-18.94164217,2.36945713,Elastic
3.08656808,1.622054825,9.04515E-05,-0.000871792,,,,,,3.733798124,0.050731922,-25.30433669,-45.13007999,4.399386797,Failure
3.08656808,1.622054825,9.04515E-05,-0.000871792,,,,,,3.735169882,0.200459556,-23.60125831,-42.58947823,4.166080361,Failure
3.093873847,0.101728674,1.51523E-05,-7.33E-05,,,,,,3.736634334,2.535456312,-3.224216263,-2.620425298,1.697016947,Elastic
3.095529554,1.833443915,8.04081E-05,-0.000936436,,,,,,3.737168365,1.976528956,-5.630204999,-12.57230169,2.139939986,Elastic
3.097260286,2.470433086,2.00099E-05,-0.001064164,,,,,,3.740018917,0.601633756,-18.8737462,-35.67690464,3.387319941,Failure
3.097260286,2.470433086,2.00099E-05,-0.001064164,,,,,,3.740660689,1.867449401,-6.447785473,-14.41560552,2.207728077,Elastic
3.098288207,0.305186021,4.13361E-05,-0.000212453,,,,,,3.742248401,0.749846994,-17.15777478,-33.15292919,3.112333364,Failure
3.098288207,0.305186021,4.13361E-05,-0.000212453,,,,,,3.744091621,0.849781017,-16.10134087,-31.51749897,3.021328057,Failure
3.102737024,0.507101698,6.21455E-05,-0.000340736,,,,,,3.747302124,0.996508005,-14.64265517,-29.19191147,2.959068802,Failure
3.102737024,0.507101698,6.21455E-05,-0.000340736,,,,,,3.751886397,2.313121024,-3.759051461,-6.552714483,1.901644771,Elastic
3.104491029,2.044833006,6.53167E-05,-0.000989422,,,,,,3.758772824,2.182565282,-4.344488843,-8.819797699,2.011847977,Elastic
3.104491029,2.044833006,6.53167E-05,-0.000989422,,,,,,3.760354401,2.600261696,-3.163565582,-1.166981667,1.605857849,Elastic
3.104491029,2.044833006,6.53167E-05,-0.000989422,,,,,,3.761573237,1.385620454,-10.84388333,-22.47588267,2.598036322,Elastic
3.104491029,2.044833006,6.53167E-05,-0.000989422,,,,,,3.768961491,1.527876412,-9.449595597,-19.99266788,2.469073912,Elastic
3.104491029,2.044833006,6.53167E-05,-0.000989422,,,,,,3.76926102,2.459899383,-3.307054537,-3.723950916,1.755100106,Elastic
3.104491029,2.044833006,6.53167E-05,-0.000989422,,,,,,3.770058353,2.020322371,-5.307241567,-11.56913402,2.135885256,Elastic
3.104491029,2.044833006,6.53167E-05,-0.000989422,,,,,,3.772927616,2.416185015,-3.405630681,-4.497652045,1.799385446,Elastic
3.107881259,0.710217014,7.81391E-05,-0.000459687,,,,,,3.77520449,1.623170023,-8.546156775,-18.33087578,2.400254878,Elastic
3.111794097,2.131910645,5.77093E-05,-0.001007287,,,,,,3.777566739,0.025328123,-25.52751557,-45.39462205,4.487429918,Failure
3.111794097,2.131910645,5.77093E-05,-0.001007287,,,,,,3.780335608,2.393030684,-3.461975278,-4.856185553,1.8209507,Elastic
3.11431146,0.912930891,8.93612E-05,-0.000568143,,,,,,3.784716809,2.137555079,-4.568876769,-9.405150325,2.057141216,Elastic
3.118965618,2.788650832,-2.48E-05,-0.001083419,,,,,,3.785781206,0.774945623,-16.81943576,-32.56259165,3.147098387,Failure
3.118965618,2.788650832,-2.48E-05,-0.001083419,,,,,,3.786241507,1.762158813,-7.290620518,-15.88664216,2.315027834,Elastic
3.119097166,2.218988283,4.92344E-05,-0.001023073,,,,,,3.786312002,0.824571425,-16.32207683,-31.78520197,3.111032815,Failure
3.119097166,2.218988283,4.92344E-05,-0.001023073,,,,,,3.790913856,2.527250316,-3.172714905,-2.259860404,1.661997752,Elastic
3.121982809,2.863075416,-3.63E-05,-0.001084285,,,,,,3.794029775,0.1459958,-24.13639415,-43.29032547,4.321812563,Failure
3.122027629,1.11524333,9.59511E-05,-0.000666042,,,,,,3.794286634,0.301685212,-22.33119444,-40.62504705,4.051751378,Failure
3.122027629,1.11524333,9.59511E-05,-0.000666042,,,,,,3.796697356,0.50113101,-19.96432713,-37.17961952,3.652193057,Failure
3.122405082,2.591390544,3.81907E-06,-0.001071802,,,,,,3.800185059,0.65523968,-18.11732801,-34.49943591,3.327702224,Failure
3.125,2.9375,-4.76E-05,-0.001083748,,,,,,3.803179025,2.113483773,-4.693323691,-9.6807501,2.083668198,Elastic
3.126400234,2.306065922,3.99007E-05,-0.001036761,,,,,,3.803604792,2.23123455,-4.063145249,-7.585596323,1.97981793,Elastic
3.126400234,2.306065922,3.99007E-05,-0.001036761,,,,,,3.803901756,0.941741572,-15.11291805,-29.83087857,3.081701474,Failure
3.130723236,1.316054456,9.79682E-05,-0.000752907,,,,,,3.804009583,2.351289684,-3.569395267,-5.410036557,1.858105281,Elastic
3.130723236,1.316054456,9.79682E-05,-0.000752907,,,,,,3.806101928,1.094338328,-13.66458417,-27.226795,2.935194413,Failure
3.133703302,2.393143561,2.9723E-05,-0.001048332,,,,,,3.811675475,1.550504541,-9.201104388,-19.31872321,2.491569317,Elastic
3.133703302,2.393143561,2.9723E-05,-0.001048332,,,,,,3.812088987,0.380502772,-21.36894383,-39.19554623,3.914828088,Failure
3.133703302,2.393143561,2.9723E-05,-0.001048332,,,,,,3.812602925,0.423022308,-20.8607727,-38.45942505,3.826140571,Failure
3.133703302,2.393143561,2.9723E-05,-0.001048332,,,,,,3.813196885,1.287787566,-11.7423531,-23.85063624,2.744304566,Failure
3.133703302,2.393143561,2.9723E-05,-0.001048332,,,,,,3.813903123,1.595731817,-8.772072392,-18.53150167,2.458362802,Elastic
3.140065846,1.518196767,9.54104E-05,-0.000829917,,,,,,3.82201727,1.435674464,-10.30620945,-21.21142746,2.602517659,Elastic
3.149217889,1.724962467,8.79384E-05,-0.000897871,,,,,,3.823024211,2.572009973,-3.090009733,-1.089729087,1.565651774,Elastic
3.15,0,0,0,,,,,,3.824414286,1.171175164,-12.87740181,-25.78024754,2.867676663,Failure
3.151479257,2.711854654,-1.40E-05,-0.001074093,,,,,,3.825357654,2.258143753,-3.917056789,-6.916187455,1.953314356,Elastic
3.15441436,0.203457347,2.94736E-05,-0.000143386,,,,,,3.825926848,1.212416303,-12.46823544,-25.0396688,2.817783016,Failure
3.15441436,0.203457347,2.94736E-05,-0.000143386,,,,,,3.830899669,0.124596097,-24.32292021,-43.5061127,4.398926355,Failure
3.158179363,1.936351558,7.51598E-05,-0.000955922,,,,,,3.836358151,1.700335026,-7.798932898,-16.5834428,2.401810728,Elastic
3.158179363,1.936351558,7.51598E-05,-0.000955922,,,,,,3.83685631,0.676382313,-17.81889814,-34.00652163,3.330351991,Failure
3.158181616,0.405852516,5.33108E-05,-0.00027621,,,,,,3.839467445,0.920505465,-15.29561314,-30.0481542,3.156257188,Failure
3.158181616,0.405852516,5.33108E-05,-0.00027621,,,,,,3.845373284,2.069654344,-4.926595711,-10.11220832,2.136186637,Elastic
3.158848099,2.514101018,1.4164E-05,-0.001058147,,,,,,3.846768109,1.845079975,-6.558101618,-14.01710871,2.310061595,Elastic
3.163311995,0.607288702,7.19452E-05,-0.000398448,,,,,,3.853948797,2.495732845,-3.132104895,-2.250510418,1.641347275,Elastic
3.163311995,0.607288702,7.19452E-05,-0.000398448,,,,,,3.856335106,2.18760918,-4.229447681,-7.921532918,2.026193848,Elastic
3.16845623,0.810404017,8.58042E-05,-0.000511546,,,,,,3.857998761,1.454735992,-10.08276765,-20.64671664,2.614018387,Elastic
3.16845623,0.810404017,8.58042E-05,-0.000511546,,,,,,3.860808672,2.308787909,-3.66190994,-5.682567888,1.888749343,Elastic
3.172021468,2.101492388,6.16818E-05,-0.00099206,,,,,,3.868154128,1.915002711,-5.992950258,-12.63982899,2.273059402,Elastic
3.172021468,2.101492388,6.16818E-05,-0.00099206,,,,,,3.868957183,1.677221576,-7.982841709,-16.74300769,2.445579019,Elastic
3.176172398,1.012716456,9.49071E-05,-0.000613803,,,,,,3.870498996,0.276934102,-22.49344451,-40.74693163,4.174440365,Failure
3.176172398,1.012716456,9.49071E-05,-0.000613803,,,,,,3.873500252,0.525236483,-19.5240919,-36.43971571,3.664810878,Failure
3.179324536,2.188570027,5.32627E-05,-0.001008106,,,,,,3.87442137,1.94759346,-5.743462733,-12.02192074,2.250807676,Elastic
3.182672904,1.213348272,9.92688E-05,-0.000705108,,,,,,3.876165773,1.997952946,-5.379452754,-11.12528291,2.210067804,Elastic
3.182672904,1.213348272,9.92688E-05,-0.000705108,,,,,,3.878251785,2.159033895,-4.361354262,-8.247964446,2.05712213,Elastic
3.183992895,2.635058475,-3.19E-06,-0.001063387,,,,,,3.879960996,1.068287914,-13.85193119,-27.23745781,3.010397282,Failure
3.183992895,2.635058475,-3.19E-06,-0.001063387,,,,,,3.882158144,2.219553362,-4.037404866,-7.122051457,1.989725947,Elastic
3.184482809,2.831825416,-3.35E-05,-0.001070826,,,,,,3.882473696,2.46253663,-3.153291772,-2.607102123,1.661344948,Elastic
3.184482809,2.831825416,-3.35E-05,-0.001070826,,,,,,3.888697361,2.387123146,-3.345331358,-3.973555609,1.769022236,Elastic
3.186627605,2.275647665,4.39414E-05,-0.001022047,,,,,,3.888793945,1.309124806,-11.48307674,-22.95325946,2.775928244,Elastic
3.1875,2.90625,-4.54E-05,-0.001070292,,,,,,3.889881688,2.439382299,-3.196227329,-2.976358713,1.689699275,Elastic
3.193563613,1.414338709,9.9146E-05,-0.000785944,,,,,,3.890624879,0.021335954,-25.40516068,-45.02790993,4.620960131,Failure
3.193563613,1.414338709,9.9146E-05,-0.000785944,,,,,,3.895620146,0.779015359,-16.64743137,-32.10402092,3.307862423,Failure
3.193930673,2.362725304,3.37278E-05,-0.001033861,,,,,,3.896067279,0.820819241,-16.19776161,-31.4056587,3.270192396,Failure
3.193930673,2.362725304,3.37278E-05,-0.001033861,,,,,,3.904561723,2.531241217,-2.995113624,-1.065510377,1.517642907,Elastic
3.195291115,2.436811492,2.43493E-05,-0.001043103,,,,,,3.907368889,0.255534398,-22.68202038,-40.96506592,4.251618092,Failure
3.195291115,2.436811492,2.43493E-05,-0.001043103,,,,,,3.908114979,0.100080265,-24.48875216,-43.62641946,4.524040955,Failure
3.202906223,1.616481019,9.4244E-05,-0.000856933,,,,,,3.910171504,0.546379116,-19.16939919,-35.88742427,3.636218282,Failure
3.202906223,1.616481019,9.4244E-05,-0.000856933,,,,,,3.911419048,2.090664756,-4.731137751,-9.191015879,2.13213231,Elastic
3.210540513,0.101728674,1.57346E-05,-7.26E-05,,,,,,3.911747531,2.294697415,-3.653748773,-5.481865819,1.885422007,Elastic
3.210540513,0.101728674,1.57346E-05,-7.26E-05,,,,,,3.912032245,0.70080721,-17.45391247,-33.32210877,3.405727127,Failure
3.211867697,1.82787011,8.39291E-05,-0.000919964,,,,,,3.914129606,0.896896095,-15.4326343,-30.02005162,3.22788783,Failure
3.211867697,1.82787011,8.39291E-05,-0.000919964,,,,,,3.914651054,1.807595938,-6.816512027,-14.14535974,2.383240405,Elastic
3.214307769,0.304123842,4.27409E-05,-0.000209587,,,,,,3.914743613,2.208972945,-4.051786152,-7.028128912,1.996619452,Elastic
3.216996448,2.755029238,-2.23E-05,-0.001062234,,,,,,3.915470185,2.17143161,-4.250829631,-7.703509294,2.042059795,Elastic
3.218756587,0.506039519,6.43056E-05,-0.000336363,,,,,,3.915526685,1.047051807,-13.99321743,-27.35969896,3.038954276,Failure
3.220435912,2.55776895,7.61458E-06,-0.001050503,,,,,,3.916610962,1.550079219,-9.121285851,-18.58795507,2.577137548,Elastic
3.223886966,0.707475705,8.0767E-05,-0.000452789,,,,,,3.918487493,1.588177862,-8.762571074,-17.91623494,2.549442992,Elastic
3.223886966,0.707475705,8.0767E-05,-0.000452789,,,,,,3.923882772,0.376214004,-21.21229441,-38.80799126,4.022767498,Failure
3.226040481,2.032040982,6.89875E-05,-0.0009689,,,,,,3.924492873,0.426689367,-20.6042424,-37.92552042,3.91951753,Failure
3.226040481,2.032040982,6.89875E-05,-0.0009689,,,,,,3.924775436,1.328186334,-11.25310935,-22.38206614,2.773374109,Elastic
3.230317168,0.910189582,9.246E-05,-0.000559666,,,,,,3.930351116,1.475032098,-9.825267889,-19.7918404,2.64807413,Elastic
3.230317168,0.910189582,9.246E-05,-0.000559666,,,,,,3.933157154,1.16434571,-12.80491731,-25.18469478,2.920774554,Failure
3.236817673,1.110821398,9.93055E-05,-0.000655263,,,,,,3.934952732,1.213303474,-12.37668598,-24.34586911,2.892789689,Failure
3.239551907,2.15815177,5.72708E-05,-0.000992705,,,,,,3.939153331,1.653740874,-8.143473052,-16.62775064,2.514069537,Elastic
3.239551907,2.15815177,5.72708E-05,-0.000992705,,,,,,3.939196944,2.285784662,-3.6531325,-5.395871162,1.883629264,Elastic
3.24551328,1.311632524,0.000101537,-0.000740556,,,,,,3.942771158,2.101108367,-4.631625377,-8.73605954,2.122785701,Elastic
3.246854976,2.245229409,4.79838E-05,-0.001006867,,,,,,3.947250085,1.784482488,-6.986048071,-14.29295643,2.420232691,Elastic
3.249510086,2.678233059,-1.10E-05,-0.001052334,,,,,,3.947822354,2.396026301,-3.223829164,-3.243720625,1.702134799,Elastic
3.25,2.875,-4.31E-05,-0.001055958,,,,,,3.95125002,1.997916932,-5.310029275,-10.50848581,2.234756427,Elastic
3.25,2.875,-4.31E-05,-0.001055958,,,,,,3.96303764,2.498920077,-2.9349113,-1.108869051,1.490281826,Elastic
3.25,2.875,-4.31E-05,-0.001055958,,,,,,3.967231731,0.201305921,-23.22254773,-41.66148547,4.412453375,Failure
3.254158044,2.332307047,3.77566E-05,-0.001018893,,,,,,3.967651388,0.350810204,-21.43742594,-39.07032718,4.113247694,Failure
3.254158044,2.332307047,3.77566E-05,-0.001018893,,,,,,3.968025679,0.451787995,-20.21179438,-37.30963115,3.8912552,Failure
3.255518486,2.406393236,2.8324E-05,-0.001028337,,,,,,3.968710684,0.600304464,-18.45911463,-34.7481444,3.607305801,Failure
3.256403989,1.512622961,9.91023E-05,-0.000815361,,,,,,3.969822388,1.889795636,-6.103555646,-12.26719712,2.34343197,Elastic
3.256403989,1.512622961,9.91023E-05,-0.000815361,,,,,,3.97183174,2.471433341,-2.974648943,-1.557148297,1.532367881,Elastic
3.256878928,2.480479424,1.82845E-05,-0.001036272,,,,,,3.97292941,0.994726419,-14.4335141,-27.91846962,3.123571098,Failure
3.256878928,2.480479424,1.82845E-05,-0.001036272,,,,,,3.975271767,2.387113548,-3.204197698,-3.148978585,1.688672323,Elastic
3.265556031,1.719388662,9.14947E-05,-0.000881648,,,,,,3.975377535,1.139136118,-13.06486544,-25.38743213,2.981519944,Failure
3.265556031,1.719388662,9.14947E-05,-0.000881648,,,,,,3.977262293,1.928484436,-5.796141058,-11.52278926,2.310078104,Elastic
3.266666667,0,0,0,,,,,,3.977666716,1.235931603,-12.10944043,-23.65568225,2.891987103,Elastic
3.266666667,0,0,0,,,,,,3.981974763,1.37719921,-10.72377878,-21.12956272,2.758241099,Elastic
3.266666667,0,0,0,,,,,,3.98260213,2.008360544,-5.203205366,-10.05778232,2.229580769,Elastic
3.270433922,0.202395168,3.03733E-05,-0.000141206,,,,,,3.985654661,2.206095733,-3.970799804,-6.445743445,1.977500742,Elastic
3.274201178,0.404790336,5.50368E-05,-0.000272516,,,,,,3.986266713,2.174471588,-4.1423449,-7.021459142,2.022683052,Elastic
3.274201178,0.404790336,5.50368E-05,-0.000272516,,,,,,3.989565249,2.266980984,-3.660930912,-5.280677539,1.881686167,Elastic
3.279331557,0.606226522,7.43061E-05,-0.000393152,,,,,,3.992436192,2.118642048,-4.462207308,-7.985617849,2.097144826,Elastic
3.279728815,1.923559534,7.89612E-05,-0.000935401,,,,,,3.999679933,1.736662037,-7.35722615,-14.7160738,2.485407799,Elastic
3.282023725,2.601436881,2.85849E-07,-0.001041126,,,,,,4.004417209,2.460852924,-2.932545434,-1.437520169,1.50510942,Elastic
3.282023725,2.601436881,2.85849E-07,-0.001041126,,,,,,4.008521021,1.86235743,-6.287938686,-12.43412793,2.382208992,Elastic
3.282513638,2.798203822,-3.15E-05,-0.001048231,,,,,,4.011237421,0.426907189,-20.42535257,-37.55868603,3.977219148,Failure
3.282513638,2.798203822,-3.15E-05,-0.001048231,,,,,,4.011473231,0.37640476,-21.03560149,-38.43668471,4.086151718,Failure
3.284461937,0.807662708,8.85552E-05,-0.000503674,,,,,,4.014480693,1.940882151,-5.66447662,-10.99166713,2.306817901,Elastic
3.284461937,0.807662708,8.85552E-05,-0.000503674,,,,,,4.017453938,2.345316221,-3.276355563,-3.539428146,1.720667586,Elastic
3.284461937,0.807662708,8.85552E-05,-0.000503674,,,,,,4.0177968,1.16391893,-12.76565857,-24.6626352,2.96516882,Failure
3.284461937,0.807662708,8.85552E-05,-0.000503674,,,,,,4.018290403,1.211756651,-12.29314359,-23.79821055,2.923282694,Elastic
3.284461937,0.807662708,8.85552E-05,-0.000503674,,,,,,4.023228681,2.04694065,-4.887856373,-9.014450315,2.185650639,Elastic
3.284461937,0.807662708,8.85552E-05,-0.000503674,,,,,,4.025780203,0.100080265,-24.31278333,-43.17734332,4.645249831,Failure
3.290962442,1.008294524,9.7953E-05,-0.000603542,,,,,,4.026316724,0.70091538,-17.19639602,-32.78081188,3.505274761,Failure
3.29357092,2.088700364,6.50093E-05,-0.000970263,,,,,,4.026752932,0.54648946,-18.96399626,-35.41898912,3.74532566,Failure
3.297462948,1.20892634,0.000102603,-0.000693235,,,,,,4.027167616,2.472567406,-2.853577024,-0.978490392,1.442504325,Elastic
3.297462948,1.20892634,0.000102603,-0.000693235,,,,,,4.02739901,0.255534398,-22.47160471,-40.47996113,4.358578077,Failure
3.307082347,2.214811152,5.20075E-05,-0.000991262,,,,,,4.028414085,0.897004265,-15.35979407,-29.32801713,3.264952266,Failure
3.307082347,2.214811152,5.20075E-05,-0.000991262,,,,,,4.032108113,1.047162151,-13.85960126,-26.63783085,3.087236719,Failure
3.308353657,1.409916777,0.000102609,-0.00077238,,,,,,4.036048843,1.323730376,-11.19623041,-21.69116462,2.825894187,Elastic
3.3125,2.84375,-4.06E-05,-0.001040909,,,,,,4.039432155,1.470663933,-9.779175923,-19.0773644,2.70856201,Elastic
3.314385415,2.301888791,4.17884E-05,-0.001003469,,,,,,4.042828234,0.021335954,-25.19154516,-44.45886293,4.786158438,Failure
3.314385415,2.301888791,4.17884E-05,-0.001003469,,,,,,4.043450411,0.779155281,-16.43575798,-31.33326344,3.40464058,Failure
3.315027277,2.721407644,-1.98E-05,-0.00103924,,,,,,4.043897544,0.820959162,-16.09326239,-30.61893939,3.389585204,Failure
3.315027277,2.721407644,-1.98E-05,-0.00103924,,,,,,4.048234371,1.64937271,-8.100341788,-15.86614924,2.575417825,Elastic
3.315745857,2.375974979,3.23212E-05,-0.001013087,,,,,,4.048765945,1.924004591,-5.757984593,-11.00229354,2.330292482,Elastic
3.317106299,2.450061167,2.22029E-05,-0.001021186,,,,,,4.050178695,2.387334279,-3.055202319,-2.412726477,1.595923744,Elastic
3.318466741,2.524147355,1.14554E-05,-0.001027749,,,,,,4.050246178,1.884168671,-6.07144102,-11.70018648,2.372122982,Elastic
3.318466741,2.524147355,1.14554E-05,-0.001027749,,,,,,4.057509058,2.008581275,-5.113639736,-9.407974735,2.231786603,Elastic
3.319244366,1.610907214,9.77464E-05,-0.000841064,,,,,,4.057710429,1.544428872,-9.065872009,-17.64004195,2.658772111,Elastic
3.319244366,1.610907214,9.77464E-05,-0.000841064,,,,,,4.058523493,1.78002653,-6.931923443,-13.47933983,2.472447721,Elastic
3.319244366,1.610907214,9.77464E-05,-0.000841064,,,,,,4.059586959,1.582527516,-8.708100027,-16.95482664,2.630811164,Elastic
3.319244366,1.610907214,9.77464E-05,-0.000841064,,,,,,4.062996321,2.267197366,-3.53151091,-4.586877152,1.82386055,Elastic
3.319244366,1.610907214,9.77464E-05,-0.000841064,,,,,,4.063153725,0.525530317,-19.11708948,-35.60633217,3.799885965,Failure
3.319244366,1.610907214,9.77464E-05,-0.000841064,,,,,,4.064313741,0.277094792,-22.14549332,-39.95544632,4.343822031,Failure
3.326560076,0.100666494,1.61049E-05,-7.11E-05,,,,,,4.065867264,2.11885843,-4.356288331,-7.324484859,2.076025778,Elastic
3.326560076,0.100666494,1.61049E-05,-7.11E-05,,,,,,4.067841338,1.068038747,-13.64155229,-26.02825474,3.070967922,Failure
3.330327331,0.303061663,4.40092E-05,-0.000206607,,,,,,4.069343228,2.397202348,-2.978741101,-2.031072277,1.546815738,Elastic
3.333417149,1.815078086,8.77479E-05,-0.000899569,,,,,,4.070269506,1.303365832,-11.36774301,-21.81245307,2.853129741,Elastic
3.334776149,0.50497734,6.62658E-05,-0.00033177,,,,,,4.080639868,2.20637563,-3.814135687,-5.564935301,1.921924901,Elastic
3.339906528,0.706413526,8.3258E-05,-0.000446492,,,,,,4.08125192,2.174751485,-3.992302081,-6.149692067,1.97724418,Elastic
3.339906528,0.706413526,8.3258E-05,-0.000446492,,,,,,4.086390337,1.994363922,-5.180025675,-9.411978605,2.247642397,Elastic
3.345013638,2.766953822,-2.86E-05,-0.001032851,,,,,,4.087187361,2.444740352,-2.784945713,-0.91885568,1.405015341,Elastic
3.345107212,0.905767651,9.51612E-05,-0.000549989,,,,,,4.093672014,1.798399926,-6.742156661,-12.86324532,2.464688421,Elastic
3.345107212,0.905767651,9.51612E-05,-0.000549989,,,,,,4.101268003,0.676632578,-17.29129923,-32.84219959,3.584485843,Failure
3.347540915,2.644611465,-7.94E-06,-0.001028975,,,,,,4.103133145,0.124596097,-23.90443736,-42.45334358,4.676410636,Failure
3.347540915,2.644611465,-7.94E-06,-0.001028975,,,,,,4.103879137,0.920755731,-14.97208877,-28.45179648,3.22090187,Failure
3.347589933,2.019248959,7.23801E-05,-0.000946878,,,,,,4.107348747,2.391604234,-2.909429247,-1.761105526,1.501610047,Elastic
3.347589933,2.019248959,7.23801E-05,-0.000946878,,,,,,4.109089079,2.286285289,-3.34716183,-3.782279974,1.738742058,Elastic
3.351607717,1.106399466,0.000102353,-0.000643926,,,,,,4.110371635,1.444629688,-9.973266961,-19.00984207,2.750216616,Elastic
3.360303324,1.307210593,0.000104792,-0.000727489,,,,,,4.112663293,2.101608995,-4.392983887,-7.216678413,2.083515261,Elastic
3.361101359,2.145359746,6.01905E-05,-0.000969548,,,,,,4.121330056,1.667115271,-7.881132654,-14.97081405,2.584239984,Elastic
3.371194033,1.508201029,0.000102401,-0.00080049,,,,,,4.12274211,0.423983491,-20.25863622,-37.1539054,4.07840997,Failure
3.371194033,1.508201029,0.000102401,-0.00080049,,,,,,4.122940752,0.381441155,-20.75064008,-37.87709898,4.153315011,Failure
3.374612786,2.271470534,4.5804E-05,-0.000987634,,,,,,4.124198877,1.168965372,-12.61867971,-23.83845717,2.974220786,Elastic
3.374612786,2.271470534,4.5804E-05,-0.000987634,,,,,,4.124614679,1.209263007,-12.22998904,-23.11150369,2.942163148,Elastic
3.374612786,2.271470534,4.5804E-05,-0.000987634,,,,,,4.128253612,2.296153358,-3.258536999,-3.407039529,1.694608456,Elastic
3.374612786,2.271470534,4.5804E-05,-0.000987634,,,,,,4.137668796,0.655673435,-17.49348807,-33.09774137,3.649277704,Failure
3.374612786,2.271470534,4.5804E-05,-0.000987634,,,,,,4.139455379,0.501991701,-19.22673069,-35.68950362,3.879614953,Failure
3.375,2.8125,-3.80E-05,-0.001025246,,,,,,4.139612363,0.941632326,-14.74676544,-27.83438533,3.196070974,Failure
3.375973228,2.345556722,3.63221E-05,-0.0009974,,,,,,4.140047877,0.14615649,-23.59267264,-41.93857238,4.671051584,Failure
3.375973228,2.345556722,3.63221E-05,-0.0009974,,,,,,4.140387148,0.302438956,-21.67972558,-39.18922814,4.335328545,Failure
3.37733367,2.419642911,2.6145E-05,-0.001005637,,,,,,4.140542752,1.092651973,-13.33545734,-25.12696768,3.056264411,Failure
3.37733367,2.419642911,2.6145E-05,-0.001005637,,,,,,4.141544572,2.087391642,-4.43987042,-7.215326899,2.093308334,Elastic
3.377527277,2.690157644,-1.64E-05,-0.001023523,,,,,,4.142493148,1.281675527,-11.51549829,-21.68554165,2.880910802,Elastic
3.378694112,2.493729099,1.52885E-05,-0.001012324,,,,,,4.144592298,1.424265144,-10.1417085,-19.11568204,2.770884771,Elastic
3.378694112,2.493729099,1.52885E-05,-0.001012324,,,,,,4.150854685,2.209668702,-3.659601516,-4.840087983,1.856713224,Elastic
3.380054554,2.567815287,3.77425E-06,-0.001017438,,,,,,4.151260844,1.925335121,-5.627191793,-10.09220512,2.329422782,Elastic
3.380054554,2.567815287,3.77425E-06,-0.001017438,,,,,,4.151581258,2.172127367,-3.878038042,-5.541851965,1.932061562,Elastic
3.380054554,2.567815287,3.77425E-06,-0.001017438,,,,,,4.152507765,1.89177806,-5.897230134,-10.68838291,2.370530193,Elastic
3.380054554,2.567815287,3.77425E-06,-0.001017438,,,,,,4.152891129,2.313485379,-3.120767929,-2.831059609,1.622289005,Elastic
3.380054554,2.567815287,3.77425E-06,-0.001017438,,,,,,4.153252768,0.775293435,-16.46093518,-30.84334305,3.443848961,Failure
3.380054554,2.567815287,3.77425E-06,-0.001017438,,,,,,4.153783564,0.824919236,-15.76644566,-29.8672263,3.328068128,Failure
3.380054554,2.567815287,3.77425E-06,-0.001017438,,,,,,4.155908786,0.025328123,-24.98438296,-43.96789385,4.892656891,Failure
3.383333333,0,0,0,,,,,,4.156478577,1.685488667,-7.685547751,-14.35719573,2.575304131,Elastic
3.386453485,0.201332989,3.11669E-05,-0.000138962,,,,,,4.158701695,1.980251512,-5.187497892,-9.027659052,2.25408654,Elastic
3.386453485,0.201332989,3.11669E-05,-0.000138962,,,,,,4.162415843,1.536459097,-9.062924444,-16.97295614,2.690796131,Elastic
3.387105483,1.706596638,9.5226E-05,-0.000861495,,,,,,4.16455061,1.82284587,-6.462057217,-11.82692434,2.447776295,Elastic
3.387105483,1.706596638,9.5226E-05,-0.000861495,,,,,,4.164643491,1.581686374,-8.636952619,-16.1469309,2.657808317,Elastic
3.39022074,0.403728157,5.65795E-05,-0.000268662,,,,,,4.168724873,2.403971596,-2.705872226,-0.897815693,1.364221374,Elastic
3.39022074,0.403728157,5.65795E-05,-0.000268662,,,,,,4.170383688,2.360086764,-2.872895798,-1.747770954,1.4790214,Elastic
3.39535112,0.605164343,7.6423E-05,-0.000387583,,,,,,4.173605092,2.221383184,-3.544739188,-4.399896483,1.808792692,Elastic
3.39535112,0.605164343,7.6423E-05,-0.000387583,,,,,,4.18586651,2.155249807,-3.913551985,-5.536336163,1.937516252,Elastic
3.399097406,0.805763481,9.10317E-05,-0.00049595,,,,,,4.192555462,2.264002433,-3.269084616,-3.398926791,1.688163743,Elastic
3.399097406,0.805763481,9.10317E-05,-0.00049595,,,,,,4.196027427,0.99492982,-14.19552311,-26.50995193,3.138382887,Failure
3.401278267,1.910767511,8.24413E-05,-0.000913552,,,,,,4.19620283,0.849702049,-15.54413445,-29.13734547,3.293798029,Failure
3.405752486,1.003872593,0.000100675,-0.00059281,,,,,,4.19646451,0.750412628,-16.41456122,-30.89279332,3.412836547,Failure
3.405752486,1.003872593,0.000100675,-0.00059281,,,,,,4.197061418,0.602602617,-17.9093393,-33.70077104,3.719594798,Failure
3.407513638,2.735703822,-2.55E-05,-0.001016902,,,,,,4.19893562,0.2012133,-22.80792394,-40.72992135,4.593103303,Failure
3.410040915,2.613361465,-4.34E-06,-0.001012931,,,,,,4.199730629,0.050922679,-24.62306548,-43.36670731,4.888775369,Failure
3.410040915,2.613361465,-4.34E-06,-0.001012931,,,,,,4.19995054,1.37514025,-10.56980154,-19.58391759,2.809157534,Elastic
3.412252992,1.204504409,0.000105599,-0.000680741,,,,,,4.201340277,2.052169292,-4.583660079,-7.318143301,2.122963848,Elastic
3.412252992,1.204504409,0.000105599,-0.000680741,,,,,,4.20303953,1.512284145,-9.262480002,-17.08861785,2.710879357,Elastic
3.415120372,2.075908341,6.80157E-05,-0.000946924,,,,,,4.205149599,2.20561093,-3.564789161,-4.397364681,1.810242182,Elastic
3.423143701,1.405494845,0.000105729,-0.000758031,,,,,,4.206368648,1.603497614,-8.401524961,-15.42069371,2.643920819,Elastic
3.423143701,1.405494845,0.000105729,-0.000758031,,,,,,4.213105048,1.735556543,-7.18250325,-12.98640859,2.533635383,Elastic
3.428631798,2.202019128,5.44459E-05,-0.000966664,,,,,,4.215182591,2.324282667,-2.911825948,-2.002358486,1.5008829,Elastic
3.428631798,2.202019128,5.44459E-05,-0.000966664,,,,,,4.216684445,2.177018888,-3.711598912,-4.831193295,1.862569678,Elastic
3.432299484,1.602199591,0.00010094,-0.000823679,,,,,,4.219127987,2.250716171,-3.275378975,-3.395809812,1.686040629,Elastic
3.432299484,1.602199591,0.00010094,-0.000823679,,,,,,4.229850855,2.371225787,-2.661515542,-0.926925757,1.342887188,Elastic
3.4375,2.78125,-3.53E-05,-0.001009054,,,,,,4.238540215,0.826144376,-15.74170003,-29.32173506,3.321915555,Failure
3.440027277,2.658907644,-1.30E-05,-0.001007288,,,,,,4.239332692,0.776480757,-16.19886735,-30.2450587,3.439501386,Failure
3.440027277,2.658907644,-1.30E-05,-0.001007288,,,,,,4.241755115,2.310996404,-2.902551974,-1.997596863,1.493759055,Elastic
3.443226742,0.100666494,1.65799E-05,-7.03E-05,,,,,,4.243473851,1.536304334,-9.006035338,-16.33554452,2.691572148,Elastic
3.446346893,0.301999483,4.51204E-05,-0.00020352,,,,,,4.243821843,0.025594556,-24.84358384,-43.62788236,4.966587317,Failure
3.446346893,0.301999483,4.51204E-05,-0.00020352,,,,,,4.244575321,1.582290526,-8.571491619,-15.49441109,2.658083513,Elastic
3.446990508,2.293073537,4.3211E-05,-0.000976252,,,,,,4.249910634,2.091726062,-4.207518812,-6.127918148,2.01568165,Elastic
3.446990508,2.293073537,4.3211E-05,-0.000976252,,,,,,4.25127458,1.093867935,-13.21576926,-24.33089471,3.03089985,Elastic
3.44835095,2.367159725,3.31564E-05,-0.000984969,,,,,,4.252569736,0.942872727,-14.62632545,-27.10402047,3.180558068,Failure
3.449711392,2.441245913,2.23615E-05,-0.000992127,,,,,,4.253224975,1.282891489,-11.41578367,-20.86523965,2.870201769,Elastic
3.450795711,0.50391516,6.79946E-05,-0.000326968,,,,,,4.255475761,0.50305652,-18.8971801,-35.12080694,3.895779281,Failure
3.450795711,0.50391516,6.79946E-05,-0.000326968,,,,,,4.256021017,0.656759655,-17.30940692,-32.28869456,3.57655449,Failure
3.451071834,2.515332101,1.0839E-05,-0.000997698,,,,,,4.25640753,0.303503775,-21.43449072,-38.69497596,4.397891948,Failure
3.451071834,2.515332101,1.0839E-05,-0.000997698,,,,,,4.257549671,1.425505545,-10.05049978,-18.23583793,2.766826277,Elastic
3.454541997,0.704514298,8.5374E-05,-0.000439494,,,,,,4.258400097,0.147242711,-23.36174487,-41.44566811,4.747124264,Failure
3.454966601,1.802286063,9.1202E-05,-0.000878009,,,,,,4.261395363,2.355453533,-2.636485004,-0.920056809,1.329772559,Elastic
3.454966601,1.802286063,9.1202E-05,-0.000878009,,,,,,4.264844639,1.689823088,-7.553496958,-13.3772165,2.569610368,Elastic
3.459742681,0.903868423,9.76482E-05,-0.000541163,,,,,,4.26493267,1.984500533,-4.988454161,-7.987712919,2.206673739,Elastic
3.466397761,1.101977535,0.000105043,-0.000632062,,,,,,4.267433685,1.170538254,-12.48283863,-22.81110204,2.954535988,Elastic
3.466397761,1.101977535,0.000105043,-0.000632062,,,,,,4.267849487,1.210835889,-12.09508695,-22.07746319,2.923395909,Elastic
3.469139385,2.006456935,7.54161E-05,-0.000923446,,,,,,4.270781586,1.827094891,-6.306221874,-10.82696328,2.42903436,Elastic
3.469139385,2.006456935,7.54161E-05,-0.000923446,,,,,,4.272817816,0.425360866,-19.82711348,-36.41429983,4.093693977,Failure
3.470013638,2.704453822,-2.24E-05,-0.001000463,,,,,,4.273016459,0.382818529,-20.40155677,-37.21115062,4.216424933,Failure
3.470013638,2.704453822,-2.24E-05,-0.001000463,,,,,,4.275871107,2.110063945,-4.023012656,-5.53716582,1.954471511,Elastic
3.472540915,2.582111465,-6.74E-07,-0.000996419,,,,,,4.277534502,2.251163693,-3.120178279,-2.812954319,1.602875973,Elastic
3.472540915,2.582111465,-6.74E-07,-0.000996419,,,,,,4.283429838,2.218565246,-3.29492601,-3.388254074,1.68240116,Elastic
3.475093368,1.302788661,0.000107678,-0.000713741,,,,,,4.288233987,0.923028168,-14.75275771,-27.22524205,3.182579836,Failure
3.475093368,1.302788661,0.000107678,-0.000713741,,,,,,4.288673671,1.930831353,-5.388679426,-8.763006865,2.282001429,Elastic
3.482650811,2.132567723,6.27438E-05,-0.00094482,,,,,,4.289920592,1.897274291,-5.671356967,-9.37010603,2.331486278,Elastic
3.482650811,2.132567723,6.27438E-05,-0.00094482,,,,,,4.291610815,1.44573972,-9.833201393,-17.60340592,2.745098859,Elastic
3.484249152,1.499493406,0.000105398,-0.000783556,,,,,,4.292132401,0.678718977,-16.98704548,-31.71582707,3.503896584,Failure
3.5,0,0,0,,,,,,4.293146584,2.194479824,-3.41799371,-3.758822127,1.732884115,Elastic
3.5,2.75,-3.24E-05,-0.000992409,,,,,,4.29502706,2.297765077,-2.816120453,-1.724319313,1.441239416,Elastic
3.5,2.75,-3.24E-05,-0.000992409,,,,,,4.295541742,0.125906756,-23.5613219,-41.68099181,4.818000734,Failure
3.500160602,1.697889015,9.81679E-05,-0.000842748,,,,,,4.297029252,1.671958619,-7.69128032,-13.43094907,2.578320384,Elastic
3.50100952,2.223622131,5.21287E-05,-0.000955603,,,,,,4.323112707,2.138186542,-3.715402268,-4.550184513,1.839809018,Elastic
3.502527277,2.627657644,-9.55E-06,-0.000990608,,,,,,4.323901099,2.326383483,-2.580067334,-0.863882431,1.29878996,Elastic
3.503120151,0.201332989,3.19969E-05,-0.000137351,,,,,,4.324033519,1.07085203,-13.36051466,-24.25049034,3.019635648,Elastic
3.506240302,0.402665978,5.79126E-05,-0.000264658,,,,,,4.326461688,1.306179115,-11.13965543,-19.89997057,2.827799134,Elastic
3.506240302,0.402665978,5.79126E-05,-0.000264658,,,,,,4.331581652,0.527993912,-18.37261268,-34.30901457,3.847570222,Failure
3.506240302,0.402665978,5.79126E-05,-0.000264658,,,,,,4.332169226,2.004194574,-4.708746268,-6.998941347,2.129221468,Elastic
3.506240302,0.402665978,5.79126E-05,-0.000264658,,,,,,4.332741669,0.279558387,-21.55915956,-38.79309798,4.478443337,Failure
3.506240302,0.402665978,5.79126E-05,-0.000264658,,,,,,4.339450902,1.808230577,-6.393211677,-10.56608494,2.427989449,Elastic
3.506240302,0.402665978,5.79126E-05,-0.000264658,,,,,,4.343499997,1.54242715,-8.877862447,-15.41857786,2.662557254,Elastic
3.509986588,0.603265115,7.81657E-05,-0.000381356,,,,,,4.344427855,1.58116509,-8.508816733,-14.69849958,2.634925826,Elastic
3.513732875,0.803864253,9.31812E-05,-0.000487872,,,,,,4.347881763,0.825745565,-15.57844057,-28.65479989,3.27454966,Failure
3.513732875,0.803864253,9.31812E-05,-0.000487872,,,,,,4.348549332,0.783909826,-15.94402736,-29.42921884,3.341197525,Failure
3.51936823,2.314676539,4.01287E-05,-0.000963681,,,,,,4.356944852,0.021560393,-24.72136856,-43.28386195,5.062249495,Failure
3.51936823,2.314676539,4.01287E-05,-0.000963681,,,,,,4.358062001,2.266247607,-2.796345702,-1.714266797,1.426107563,Elastic
3.520387955,1.001973365,0.000103118,-0.000582807,,,,,,4.358129699,2.022532456,-4.507277168,-6.411243759,2.072205042,Elastic
3.520728672,2.388762727,2.94547E-05,-0.000971292,,,,,,4.35969777,1.05100747,-13.52980276,-24.39895576,3.026553812,Elastic
3.522089114,2.462848916,1.79884E-05,-0.000977306,,,,,,4.359720675,1.470052412,-9.556554566,-16.6222148,2.703976465,Elastic
3.522089114,2.462848916,1.79884E-05,-0.000977306,,,,,,4.360522832,1.32641329,-10.92400233,-19.27122889,2.797769114,Elastic
3.522827719,1.897975487,8.55271E-05,-0.00089047,,,,,,4.363317232,0.90184522,-14.86378791,-27.13674159,3.169503312,Failure
3.522827719,1.897975487,8.55271E-05,-0.00089047,,,,,,4.364072967,1.651759928,-7.824526933,-13.23479199,2.57218115,Elastic
3.527043036,1.200082477,0.000108206,-0.000667665,,,,,,4.366448585,0.705606903,-16.62605961,-30.77582079,3.432004693,Failure
3.527043036,1.200082477,0.000108206,-0.000667665,,,,,,4.367693036,0.549953234,-18.05010596,-33.73252588,3.754463882,Failure
3.527043036,1.200082477,0.000108206,-0.000667665,,,,,,4.369883314,0.258222433,-21.72866373,-39.00231471,4.532439858,Failure
3.527043036,1.200082477,0.000108206,-0.000667665,,,,,,4.371635516,1.790366109,-6.519576382,-10.60985784,2.434202325,Elastic
3.527043036,1.200082477,0.000108206,-0.000667665,,,,,,4.373155417,0.101133035,-23.72271041,-41.81689268,4.912354731,Failure
3.527043036,1.200082477,0.000108206,-0.000667665,,,,,,4.373845129,1.167828748,-12.42310723,-22.13249608,2.9144577,Elastic
3.532513638,2.673203822,-1.91E-05,-0.00098361,,,,,,4.374338731,1.215666469,-11.95612195,-21.22607032,2.868689279,Elastic
3.536198819,1.396787222,0.000108468,-0.000741629,,,,,,4.384290627,0.430331021,-19.41997341,-35.82189795,4.027316723,Failure
3.536669824,2.063116317,7.06266E-05,-0.000922158,,,,,,4.384526437,0.379828593,-20.08243637,-36.71086781,4.191410723,Failure
3.536669824,2.063116317,7.06266E-05,-0.000922158,,,,,,4.3867051,2.070517783,-4.060528466,-5.230861746,1.937305699,Elastic
3.543558195,2.52962828,6.4883E-06,-0.000976333,,,,,,4.387594478,2.238076723,-2.871756593,-1.975258402,1.463147226,Elastic
3.545354602,1.593491968,0.000103748,-0.00080549,,,,,,4.390342187,1.93766694,-5.162046538,-7.702154142,2.211452396,Elastic
3.545354602,1.593491968,0.000103748,-0.00080549,,,,,,4.391822419,1.89783102,-5.512750172,-8.432673995,2.277013942,Elastic
3.555028533,2.154170725,6.06909E-05,-0.000934129,,,,,,4.397311224,2.213991302,-2.994058349,-2.353004311,1.522888575,Elastic
3.559893409,0.100666494,1.69912E-05,-6.95E-05,,,,,,4.403640206,2.153270456,-3.391690091,-3.477302605,1.696737182,Elastic
3.5625,2.71875,-2.93E-05,-0.000975382,,,,,,4.405438611,2.285614727,-2.527547468,-0.849403357,1.271227442,Elastic
3.56301356,0.301999483,4.61974E-05,-0.000200991,,,,,,4.41299511,1.37780365,-10.40122155,-17.91958476,2.733790825,Elastic
3.56301356,0.301999483,4.61974E-05,-0.000200991,,,,,,4.414773053,1.239686658,-11.70556314,-20.48430827,2.82475065,Elastic
3.565027277,2.596407644,-5.97E-06,-0.000973549,,,,,,4.416182514,1.144271075,-12.58429387,-22.25774511,2.894092948,Elastic
3.565027277,2.596407644,-5.97E-06,-0.000973549,,,,,,4.418564385,1.000783336,-13.92865995,-24.94685827,3.034015958,Elastic
3.56543118,0.502015933,6.93586E-05,-0.000321545,,,,,,4.421160121,1.959436021,-4.914625147,-7.007170731,2.147793789,Elastic
3.56543118,0.502015933,6.93586E-05,-0.000321545,,,,,,4.421749505,1.743298276,-6.905226751,-11.04080554,2.457929011,Elastic
3.568021719,1.793578439,9.3817E-05,-0.000857802,,,,,,4.424862927,0.606060806,-17.43740582,-32.2725305,3.556085088,Failure
3.569177466,0.70261507,8.71672E-05,-0.000432218,,,,,,4.427158809,0.456399149,-18.95987893,-35.14888682,3.954931845,Failure
3.573387242,2.245225133,4.93406E-05,-0.000943405,,,,,,4.428617652,0.35450047,-20.31372466,-37.00684774,4.258744415,Failure
3.574378149,0.901969195,9.97671E-05,-0.000531938,,,,,,4.430029093,1.876623932,-5.645344482,-8.477591242,2.284088483,Elastic
3.58103323,1.100078307,0.000107389,-0.000620803,,,,,,4.430627327,0.203423511,-22.28407821,-39.73149179,4.676981522,Failure
3.58103323,1.100078307,0.000107389,-0.000620803,,,,,,4.440275682,2.037919535,-4.195253553,-5.339268524,1.96006818,Elastic
3.588148487,1.294081038,0.000110107,-0.000697945,,,,,,4.455605519,1.218723109,-11.87488405,-20.58461459,2.809414906,Elastic
3.588148487,1.294081038,0.000110107,-0.000697945,,,,,,4.457081519,1.955324108,-4.879817449,-6.746053009,2.125127908,Elastic
3.590688837,1.993664911,7.80274E-05,-0.00089873,,,,,,4.457508583,1.171145247,-12.3166576,-21.46829383,2.848037703,Elastic
3.590688837,1.993664911,7.80274E-05,-0.00089873,,,,,,4.46218173,2.144962501,-3.277347635,-3.064248919,1.635864467,Elastic
3.590688837,1.993664911,7.80274E-05,-0.00089873,,,,,,4.463861944,1.472586093,-9.465680361,-15.74899573,2.637592282,Elastic
3.590688837,1.993664911,7.80274E-05,-0.00089873,,,,,,4.464078602,2.254111913,-2.510210823,-0.884333557,1.262417474,Elastic
3.590688837,1.993664911,7.80274E-05,-0.00089873,,,,,,4.465511739,1.895298508,-5.416995247,-7.800338042,2.226940151,Elastic
3.590688837,1.993664911,7.80274E-05,-0.00089873,,,,,,4.466757186,1.328997895,-10.82943133,-18.42758457,2.72531969,Elastic
3.590688837,1.993664911,7.80274E-05,-0.00089873,,,,,,4.468214236,1.65429361,-7.714999116,-12.30091567,2.507299827,Elastic
3.591745951,2.336279542,3.65147E-05,-0.000949911,,,,,,4.470535221,2.034455733,-4.152066854,-5.116614961,1.93579349,Elastic
3.591745951,2.336279542,3.65147E-05,-0.000949911,,,,,,4.47090148,0.432219445,-19.03452319,-35.29266794,3.940041171,Failure
3.593106393,2.41036573,2.51696E-05,-0.000956358,,,,,,4.472124513,0.380823194,-19.79406181,-36.28373237,4.150256689,Failure
3.593106393,2.41036573,2.51696E-05,-0.000956358,,,,,,4.473895254,1.930388551,-5.075521253,-7.060311072,2.157625274,Elastic
3.595013638,2.641953822,-1.57E-05,-0.000966404,,,,,,4.475613447,2.225519871,-2.65492303,-1.339559958,1.341983605,Elastic
3.59730427,1.490785783,0.000107979,-0.000765936,,,,,,4.475703086,1.054651493,-13.37629913,-23.53076005,2.926871844,Elastic
3.609047546,2.08471932,6.88237E-05,-0.000911883,,,,,,4.477036949,0.905417447,-14.71127995,-26.3749529,3.092452383,Failure
3.609047546,2.08471932,6.88237E-05,-0.000911883,,,,,,4.47786987,1.792950714,-6.369840857,-9.612219547,2.362252426,Elastic
3.61321572,1.689181392,0.000100701,-0.000823154,,,,,,4.478209728,1.545704541,-8.754885252,-14.25867119,2.579210233,Elastic
3.614575475,2.477145094,1.37466E-05,-0.000955711,,,,,,4.479137586,1.584442481,-8.38117423,-13.52200643,2.55180144,Elastic
3.616666667,0,0,0,,,,,,4.480168302,0.709179129,-16.43183382,-30.04967466,3.35547311,Failure
3.619786818,0.201332989,3.2698E-05,-0.00013567,,,,,,4.483698351,0.553597257,-17.72939573,-32.91769296,3.614479663,Failure
3.619786818,0.201332989,3.2698E-05,-0.00013567,,,,,,4.489913434,0.258222433,-21.39130849,-38.46604304,4.510423539,Failure
3.621628622,0.402366096,5.90936E-05,-0.000260995,,,,,,4.49082064,0.101133035,-23.47420226,-41.34780966,4.945638366,Failure
3.621628622,0.402366096,5.90936E-05,-0.000260995,,,,,,4.492441269,2.141498699,-3.206584608,-2.832771762,1.599564935,Elastic
3.624622057,0.601365888,7.95983E-05,-0.000374917,,,,,,4.494981493,0.830366343,-15.33658748,-27.65605712,3.1564712,Failure
3.624622057,0.601365888,7.95983E-05,-0.000374917,,,,,,4.495649061,0.788530604,-15.68814555,-28.44303657,3.206815177,Failure
3.625,2.6875,-2.61E-05,-0.000958032,,,,,,4.50115372,1.311338578,-10.97320471,-18.50467056,2.706206537,Elastic
3.627406255,2.175773728,5.81857E-05,-0.000922352,,,,,,4.507759813,1.80868184,-6.179505602,-9.04423873,2.317414247,Elastic
3.627406255,2.175773728,5.81857E-05,-0.000922352,,,,,,4.509148208,0.021560393,-24.44982627,-42.71034464,5.138637872,Failure
3.628368343,0.801965025,9.49634E-05,-0.000479473,,,,,,4.510515422,1.077289811,-13.13148391,-22.87740516,2.875543102,Elastic
3.628368343,0.801965025,9.49634E-05,-0.000479473,,,,,,4.511534845,2.221407958,-2.552150706,-1.058491889,1.285032701,Elastic
3.635023424,1.000074137,0.000105152,-0.000572359,,,,,,4.520546391,0.533228709,-17.90644193,-33.15081978,3.638547507,Failure
3.635023424,1.000074137,0.000105152,-0.000572359,,,,,,4.526562831,0.280396221,-21.00240947,-37.90399813,4.445288564,Failure
3.635882837,1.889267864,8.7728E-05,-0.000868708,,,,,,4.528643098,2.054270176,-3.823520873,-4.174757743,1.812983456,Elastic
3.635882837,1.889267864,8.7728E-05,-0.000868708,,,,,,4.5325549,1.451601715,-9.62420292,-15.60423438,2.588563537,Elastic
3.636044557,2.543924458,1.31509E-06,-0.000953248,,,,,,4.534837072,2.002304808,-4.280255141,-5.113115864,1.94277334,Elastic
3.639334034,1.197078401,0.000110351,-0.000654885,,,,,,4.537973337,1.677820614,-7.427292097,-11.25747409,2.4256452,Elastic
3.639334034,1.197078401,0.000110351,-0.000654885,,,,,,4.545578205,2.137022849,-3.064540337,-2.394416127,1.527261113,Elastic
3.645764964,2.266828136,4.60447E-05,-0.000930066,,,,,,4.546184546,1.882231556,-5.408041363,-7.296644208,2.173924169,Elastic
3.645764964,2.266828136,4.60447E-05,-0.000930066,,,,,,4.549000659,1.981299543,-4.444590171,-5.379508316,1.976098321,Elastic
3.649253938,1.388079599,0.000110764,-0.000724653,,,,,,4.551339032,0.931292968,-14.4082008,-25.38570474,2.991830891,Elastic
3.649253938,1.388079599,0.000110764,-0.000724653,,,,,,4.553246668,1.911790776,-5.105028922,-6.667264851,2.115644673,Elastic
3.657513638,2.610703822,-1.22E-05,-0.000948906,,,,,,4.555237446,0.686983778,-16.50992852,-30.03079089,3.320901665,Failure
3.657513638,2.610703822,-1.22E-05,-0.000948906,,,,,,4.561389116,1.223287747,-11.75392234,-19.7438563,2.70455542,Elastic
3.658409721,1.584784345,0.00010612,-0.000786576,,,,,,4.561953843,1.817088053,-6.028220926,-8.392076453,2.252323442,Elastic
3.658409721,1.584784345,0.00010612,-0.000786576,,,,,,4.562992223,1.183209012,-12.12047707,-20.49754348,2.733005312,Elastic
3.664123673,2.357882544,3.23284E-05,-0.000934942,,,,,,4.566951434,1.433942399,-9.772040232,-15.6741905,2.562431739,Elastic
3.664123673,2.357882544,3.23284E-05,-0.000934942,,,,,,4.567775219,0.125906756,-22.95344281,-40.5751671,4.872769801,Failure
3.664123673,2.357882544,3.23284E-05,-0.000934942,,,,,,4.56786328,1.693551741,-7.247203699,-10.70017096,2.379676572,Elastic
3.664123673,2.357882544,3.23284E-05,-0.000934942,,,,,,4.574018596,2.193763653,-2.51142778,-0.980005978,1.261150052,Elastic
3.664123673,2.357882544,3.23284E-05,-0.000934942,,,,,,4.574338454,1.294969341,-11.07905733,-18.27956619,2.64050889,Elastic
3.664123673,2.357882544,3.23284E-05,-0.000934942,,,,,,4.578330825,1.544451163,-8.700901584,-13.46762034,2.480257635,Elastic
3.665364613,2.042578232,7.36376E-05,-0.000893337,,,,,,4.579432295,1.590437355,-8.252259094,-12.57687909,2.447662821,Elastic
3.665364613,2.042578232,7.36376E-05,-0.000893337,,,,,,4.581858124,1.10697258,-12.80002024,-21.83063019,2.773242336,Elastic
3.676560076,0.100666494,1.73308E-05,-6.87E-05,,,,,,4.582875434,0.431006526,-18.63438408,-34.76397959,3.832519874,Failure
3.676560076,0.100666494,1.73308E-05,-6.87E-05,,,,,,4.583905695,0.38771125,-19.21535369,-35.55923069,3.966969901,Failure
3.678401879,0.301699601,4.70323E-05,-0.000198201,,,,,,4.586151368,0.953931286,-14.1627454,-24.73068899,2.92005979,Elastic
3.680819499,0.501716051,7.06078E-05,-0.000316848,,,,,,4.592085485,0.66661523,-16.57340783,-30.17514408,3.301647604,Failure
3.681076838,1.784870816,9.60002E-05,-0.000836715,,,,,,4.595080039,1.955741076,-4.58821008,-5.427640205,1.977885358,Elastic
3.681076838,1.784870816,9.60002E-05,-0.000836715,,,,,,4.597705511,0.510518343,-17.93329592,-33.14554755,3.601142113,Failure
3.683723322,2.13363264,6.33361E-05,-0.000904221,,,,,,4.602538142,0.307433792,-20.31629551,-37.01277048,4.257561333,Failure
3.683812935,0.700715842,8.86016E-05,-0.000424692,,,,,,4.604195837,0.837630552,-15.14471486,-26.8579636,3.041939032,Failure
3.683812935,0.700715842,8.86016E-05,-0.000424692,,,,,,4.604424615,0.148080545,-22.54202685,-39.99732376,4.793236064,Failure
3.685592755,2.424661908,2.10445E-05,-0.000934637,,,,,,4.604988314,0.787966932,-15.54058096,-27.78096536,3.094758575,Failure
3.685592755,2.424661908,2.10445E-05,-0.000934637,,,,,,4.608418573,1.728083387,-6.865331825,-9.683433737,2.299026687,Elastic
3.6875,2.65625,-2.28E-05,-0.000940417,,,,,,4.608613146,2.105505379,-3.111900499,-2.390246196,1.530111372,Elastic
3.689013618,0.900069967,0.000101475,-0.000522353,,,,,,4.614914942,1.609111931,-8.04273277,-11.92363352,2.390344982,Elastic
3.689013618,0.900069967,0.000101475,-0.000522353,,,,,,4.619163291,1.523487614,-8.877860813,-13.54363378,2.442720333,Elastic
3.693324228,1.097074231,0.000109225,-0.000608829,,,,,,4.622163889,0.025594556,-24.1489585,-42.19751898,5.140063624,Failure
3.695895785,1.971485322,8.09762E-05,-0.000874321,,,,,,4.625205287,1.389751784,-10.15684582,-16.08184706,2.517542142,Elastic
3.695895785,1.971485322,8.09762E-05,-0.000874321,,,,,,4.638280631,2.068579018,-3.352937092,-2.823341497,1.609969621,Elastic
3.700439485,1.291076963,0.00011207,-0.000683863,,,,,,4.640330689,1.011606691,-13.59587347,-23.27454751,2.790526439,Elastic
3.702082032,2.224687048,5.14947E-05,-0.000912347,,,,,,4.645521905,0.864504723,-14.87061915,-26.09901513,2.965789218,Elastic
3.707061837,2.491441272,8.71267E-06,-0.000932518,,,,,,4.646086242,1.800183987,-6.091714935,-7.952523469,2.169256879,Elastic
3.707061837,2.491441272,8.71267E-06,-0.000932518,,,,,,4.648730985,0.763787228,-15.72545397,-28.0187872,3.097190588,Failure
3.710359388,1.48207816,0.000110096,-0.00074771,,,,,,4.652444218,2.047573754,-3.513505111,-3.094064256,1.658854477,Elastic
3.710359388,1.48207816,0.000110096,-0.00074771,,,,,,4.652752822,1.592480826,-8.180181259,-11.93616675,2.349572602,Elastic
3.720440741,2.315741457,3.80328E-05,-0.000917632,,,,,,4.653010886,0.613636666,-16.92150734,-30.84524198,3.326327437,Failure
3.720440741,2.315741457,3.80328E-05,-0.000917632,,,,,,4.653686616,1.676307928,-7.343921903,-10.29571656,2.283433447,Elastic
3.726270838,1.680473769,0.000102776,-0.000802807,,,,,,4.655012229,1.860365659,-5.456588601,-6.700417212,2.07577218,Elastic
3.726270838,1.680473769,0.000102776,-0.000802807,,,,,,4.655556108,2.152994897,-2.506397994,-0.974728069,1.254894528,Elastic
3.728530918,2.558220636,-4.73E-06,-0.000928524,,,,,,4.658102642,1.5528427,-8.566631554,-12.66486333,2.369077454,Elastic
3.728530918,2.558220636,-4.73E-06,-0.000928524,,,,,,4.662074351,1.889924879,-5.137313992,-6.061705636,2.020146306,Elastic
3.733333333,0,0,0,,,,,,4.662731455,0.205143317,-21.56082901,-38.67530037,4.563859377,Failure
3.733333333,0,0,0,,,,,,4.665670751,0.05191728,-23.67500475,-41.52538658,5.053509776,Failure
3.733333333,0,0,0,,,,,,4.675050087,2.006976278,-3.865148778,-3.665183339,1.747892539,Elastic
3.735175137,0.201033107,3.32056E-05,-0.000133756,,,,,,4.679076012,1.442578998,-9.62068403,-14.65282018,2.408291284,Elastic
3.737016941,0.402066214,6.00209E-05,-0.000257202,,,,,,4.679212439,1.938837009,-4.585351017,-4.944848145,1.903406493,Elastic
3.737016941,0.402066214,6.00209E-05,-0.000257202,,,,,,4.684253894,1.303435776,-10.92735767,-17.32861923,2.489971283,Elastic
3.740010377,0.601066006,8.08423E-05,-0.000369116,,,,,,4.685560566,1.662298184,-7.458499669,-10.30211468,2.245853018,Elastic
3.74004039,2.091491553,6.83189E-05,-0.000885878,,,,,,4.688914455,0.842586846,-14.98054955,-26.24122685,2.929291366,Elastic
3.74004039,2.091491553,6.83189E-05,-0.000885878,,,,,,4.691331058,0.79153297,-15.41176603,-27.21890584,2.997010617,Failure
3.741089785,1.867088275,9.05267E-05,-0.000844676,,,,,,4.691773564,1.115439016,-12.62979509,-20.93686089,2.624188473,Elastic
3.743003812,0.800065797,9.63399E-05,-0.00047079,,,,,,4.698275945,0.962567885,-13.95845832,-23.8576631,2.765954322,Elastic
3.743003812,0.800065797,9.63399E-05,-0.00047079,,,,,,4.702410832,1.76957213,-6.345100948,-8.048454466,2.115829347,Elastic
3.743003812,0.800065797,9.63399E-05,-0.00047079,,,,,,4.703567903,1.234239325,-11.54935677,-18.54363373,2.510445454,Elastic
3.743003812,0.800065797,9.63399E-05,-0.00047079,,,,,,4.70517101,1.194160591,-11.9110589,-19.31393525,2.537966955,Elastic
3.743003812,0.800065797,9.63399E-05,-0.00047079,,,,,,4.710173528,0.026322724,-23.93291431,-41.85354481,5.125063832,Failure
3.743003812,0.800065797,9.63399E-05,-0.00047079,,,,,,4.710831459,0.669583895,-16.35916585,-29.46120054,3.163888006,Failure
3.747314422,0.997070062,0.000106662,-0.000561244,,,,,,4.711877819,1.467307194,-9.362332152,-13.92240367,2.340957242,Elastic
3.748092755,2.393411908,2.4934E-05,-0.000916766,,,,,,4.714111889,0.513428518,-17.65854229,-32.44141643,3.451549813,Failure
3.748092755,2.393411908,2.4934E-05,-0.000916766,,,,,,4.714218084,2.120066338,-2.558206539,-1.045697986,1.271227386,Elastic
3.75,2.625,-1.93E-05,-0.00092259,,,,,,4.71894452,0.310343967,-19.77853068,-36.35618442,4.076213996,Failure
3.75,2.625,-1.93E-05,-0.00092259,,,,,,4.723170589,0.15104921,-22.1257367,-39.43155025,4.699643067,Failure
3.75,2.625,-1.93E-05,-0.00092259,,,,,,4.731031819,2.095130781,-2.72967693,-1.374555261,1.343531796,Elastic
3.751625032,1.194074326,0.000112032,-0.000641629,,,,,,4.733450437,0.434770922,-18.24138276,-33.86479797,3.620868771,Failure
3.751625032,1.194074326,0.000112032,-0.000641629,,,,,,4.734284781,1.755562387,-6.456187756,-8.049370849,2.074575503,Elastic
3.758399099,2.182545961,5.68178E-05,-0.000894415,,,,,,4.734480698,0.391475645,-18.54931616,-34.72359905,3.751737745,Failure
3.761544936,1.385075524,0.000112499,-0.000709202,,,,,,4.734829048,0.94410466,-14.08064409,-23.9944814,2.736266154,Elastic
3.769561837,2.460191272,1.25343E-05,-0.000914611,,,,,,4.736031977,1.840944988,-5.551101246,-6.33700313,1.968997163,Elastic
3.770571561,2.020398643,7.62918E-05,-0.00086808,,,,,,4.738267555,2.03032994,-3.422094492,-2.588152532,1.581105727,Elastic
3.771464839,1.576076721,0.000108008,-0.000767031,,,,,,4.743651678,1.942189833,-4.4152341,-4.25705307,1.797805671,Elastic
3.771464839,1.576076721,0.000108008,-0.000767031,,,,,,4.744415492,1.876035031,-5.158630233,-5.559166831,1.905416767,Elastic
3.771464839,1.576076721,0.000108008,-0.000767031,,,,,,4.746716993,0.692956409,-16.12854953,-28.801772,3.074807788,Failure
3.771464839,1.576076721,0.000108008,-0.000767031,,,,,,4.753998363,1.611738697,-7.913356674,-10.7458288,2.165965005,Elastic
3.771464839,1.576076721,0.000108008,-0.000767031,,,,,,4.755457085,1.330926756,-10.62348194,-16.29349156,2.358037697,Elastic
3.771464839,1.576076721,0.000108008,-0.000767031,,,,,,4.757929263,1.662368077,-7.39706062,-9.706257475,2.117306697,Elastic
3.776757808,2.273600369,4.36569E-05,-0.000900111,,,,,,4.758504955,1.578348254,-8.244272774,-11.37462851,2.182834517,Elastic
3.776757808,2.273600369,4.36569E-05,-0.000900111,,,,,,4.760658928,0.129488817,-22.28013287,-39.65376367,4.72595825,Failure
3.786283786,1.762691228,9.85467E-05,-0.000813119,,,,,,4.764818786,1.096877988,-12.72670294,-20.82873938,2.530975674,Elastic
3.791030918,2.526970636,-1.01E-06,-0.000910576,,,,,,4.766813734,2.100064443,-2.530748593,-0.917848914,1.259495749,Elastic
3.791948395,0.100366612,1.75385E-05,-6.76E-05,,,,,,4.768409597,2.034485968,-3.244219548,-2.179244673,1.523539795,Elastic
3.791948395,0.100366612,1.75385E-05,-6.76E-05,,,,,,4.773793719,1.946345861,-4.293017709,-3.872798297,1.724394166,Elastic
3.793790199,0.301399719,4.76567E-05,-0.000195328,,,,,,4.773869858,1.824313882,-5.679237664,-6.33067004,1.915662394,Elastic
3.796207818,0.501416169,7.15435E-05,-0.000311992,,,,,,4.77906827,1.50574399,-8.945090312,-12.66478956,2.19551839,Elastic
3.799201254,0.70041596,8.97752E-05,-0.000417718,,,,,,4.780197408,1.880968692,-5.050241476,-5.13492334,1.820988501,Elastic
3.799201254,0.70041596,8.97752E-05,-0.000417718,,,,,,4.788258892,1.355654952,-10.37060379,-15.58022363,2.282829321,Elastic
3.801102733,1.949305734,8.3565E-05,-0.000849372,,,,,,4.789867367,0.53996177,-17.26262849,-31.5308777,3.297363292,Failure
3.801102733,1.949305734,8.3565E-05,-0.000849372,,,,,,4.795596932,1.734468677,-6.613836911,-7.954195893,1.972469469,Elastic
3.801304616,0.897065892,0.000102652,-0.000512139,,,,,,4.795883807,0.287129282,-19.77879428,-36.40613708,4.038243792,Failure
3.801304616,0.897065892,0.000102652,-0.000512139,,,,,,4.798025626,1.851517798,-5.354704833,-5.576125625,1.827003442,Elastic
3.804409823,2.351270821,3.07889E-05,-0.0008996,,,,,,4.799611416,0.846111139,-14.81059309,-25.5177937,2.767057526,Elastic
3.805615226,1.094070156,0.000110589,-0.000596472,,,,,,4.801371889,1.078414763,-12.85054043,-20.96327029,2.48986693,Elastic
3.8125,2.59375,-1.58E-05,-0.000904599,,,,,,4.80164712,0.803104273,-15.15342263,-26.35485304,2.822801382,Elastic
3.812730483,1.288072887,0.000113539,-0.00066928,,,,,,4.809028825,1.245946179,-11.36259325,-17.61469769,2.327903635,Elastic
3.814716167,2.140404874,6.19852E-05,-0.000876307,,,,,,4.810931889,1.198368317,-11.78762137,-18.54193921,2.363416419,Elastic
3.814716167,2.140404874,6.19852E-05,-0.000876307,,,,,,4.811789817,0.925001499,-14.14476971,-23.90675974,2.643714262,Elastic
3.822650386,1.479074085,0.000111557,-0.000730822,,,,,,4.816436941,2.026470899,-3.257087995,-1.893759294,1.462476524,Elastic
3.822650386,1.479074085,0.000111557,-0.000730822,,,,,,4.820599293,1.95833163,-4.132928808,-3.211035418,1.630857594,Elastic
3.831477787,1.65829418,0.000104982,-0.000779706,,,,,,4.821338661,0.723269791,-15.76230065,-27.8012814,2.921914881,Failure
3.831477787,1.65829418,0.000104982,-0.000779706,,,,,,4.823346184,0.022173789,-23.62422125,-41.45551381,5.042821482,Failure
3.832061837,2.428941272,1.63757E-05,-0.000896557,,,,,,4.825752901,0.563334284,-16.99809406,-30.88603203,3.199013756,Failure
3.832061837,2.428941272,1.63757E-05,-0.000896557,,,,,,4.828465437,2.071843811,-2.532721773,-0.886696628,1.257715869,Elastic
3.833074876,2.231459282,4.91709E-05,-0.000882418,,,,,,4.833372146,0.265568889,-19.95689809,-36.66879012,4.064671564,Failure
3.833074876,2.231459282,4.91709E-05,-0.000882418,,,,,,4.83809557,1.914194936,-4.580730505,-3.936077921,1.647785673,Elastic
3.845247338,2.069311964,7.06513E-05,-0.000859784,,,,,,4.838116876,1.419427983,-9.734152331,-13.97122626,2.141246501,Elastic
3.846296734,1.844908686,9.29209E-05,-0.000820222,,,,,,4.838577482,0.104010281,-22.3611492,-39.79973716,4.719635968,Failure
3.85,0,0,0,,,,,,4.841147312,1.778552615,-6.091959709,-6.685870388,1.818804968,Elastic
3.850563456,0.200733225,3.35583E-05,-0.000131796,,,,,,4.84519582,0.441576854,-17.89525014,-33.13733205,3.44077812,Failure
3.850563456,0.200733225,3.35583E-05,-0.000131796,,,,,,4.846418853,0.390180603,-18.28535813,-34.15260782,3.558397845,Failure
3.85240526,0.401766332,6.06719E-05,-0.0002533,,,,,,4.847968176,1.275301265,-11.06490929,-16.78280923,2.232632053,Elastic
3.85240526,0.401766332,6.06719E-05,-0.0002533,,,,,,4.85311374,1.889386033,-4.849440322,-4.2810304,1.644205746,Elastic
3.853530918,2.495720636,2.7558E-06,-0.000892497,,,,,,4.854324438,1.17645044,-11.94525517,-18.70589988,2.305684972,Elastic
3.855398696,0.600766123,8.17152E-05,-0.00036313,,,,,,4.861495696,1.801468704,-5.816928591,-6.058594922,1.738101201,Elastic
3.855398696,0.600766123,8.17152E-05,-0.00036313,,,,,,4.862686332,1.68490534,-7.067492309,-8.430777599,1.869332243,Elastic
3.856318425,0.80017305,9.73971E-05,-0.000462917,,,,,,4.863232692,1.028833824,-13.20919635,-21.56964321,2.438214987,Elastic
3.856318425,0.80017305,9.73971E-05,-0.000462917,,,,,,4.879471882,1.994953429,-3.44147322,-1.882088318,1.434240658,Elastic
3.85960542,0.994065986,0.000107697,-0.000549831,,,,,,4.882439665,0.623061644,-16.43327098,-29.40775733,2.999775577,Failure
3.85960542,0.994065986,0.000107697,-0.000549831,,,,,,4.883825339,1.528281253,-8.644892275,-11.46553745,1.958971007,Elastic
3.86072689,2.309129733,3.65764E-05,-0.000882273,,,,,,4.887795893,0.469322596,-17.59785665,-32.40245795,3.316066615,Failure
3.86391603,1.19107025,0.000113207,-0.000627966,,,,,,4.889504649,1.640891295,-7.50047375,-9.131479399,1.847042405,Elastic
3.86391603,1.19107025,0.000113207,-0.000627966,,,,,,4.890565489,1.256996948,-11.19446194,-16.88186963,2.165754154,Elastic
3.873835934,1.382071448,0.000113714,-0.00069323,,,,,,4.890921631,0.364586047,-18.37417819,-34.459584,3.586442864,Failure
3.873835934,1.382071448,0.000113714,-0.00069323,,,,,,4.891044815,1.841960856,-5.330204022,-4.95273,1.598663117,Elastic
3.875,2.5625,-1.21E-05,-0.000886493,,,,,,4.894011241,1.607500852,-7.83981662,-9.781250128,1.866991621,Elastic
3.87577851,1.998219054,7.8588E-05,-0.000842351,,,,,,4.894790546,0.209210932,-20.52795064,-37.46058426,4.187730178,Failure
3.879620171,1.571745627,0.000109169,-0.000748939,,,,,,4.895018688,1.205723985,-11.64860817,-17.87793154,2.202830502,Elastic
3.879620171,1.571745627,0.000109169,-0.000748939,,,,,,4.895121424,1.37864518,-10.07441787,-14.41550607,2.054837946,Elastic
3.888378904,2.386800185,2.24133E-05,-0.000879607,,,,,,4.910002949,2.031075055,-2.821586761,-0.878661033,1.351192584,Elastic
3.889391943,2.189318194,5.45447E-05,-0.000864586,,,,,,4.914248959,1.961566287,-3.911897715,-2.200935536,1.363326469,Elastic
3.889391943,2.189318194,5.45447E-05,-0.000864586,,,,,,4.918631058,1.086340444,-12.66397596,-20.11451433,2.277258368,Elastic
3.889391943,2.189318194,5.45447E-05,-0.000864586,,,,,,4.926738684,0.932771024,-13.93415619,-23.10961523,2.444855192,Elastic
3.889391943,2.189318194,5.45447E-05,-0.000864586,,,,,,4.927929383,1.71444101,-6.682810396,-7.33919446,1.669196314,Elastic
3.889391943,2.189318194,5.45447E-05,-0.000864586,,,,,,4.929267129,1.936757384,-4.225169996,-2.687696173,1.328068771,Elastic
3.891490734,1.740511639,0.000100644,-0.000789216,,,,,,4.931004633,1.363225953,-10.18834391,-14.50280125,1.990467626,Elastic
3.891490734,1.740511639,0.000100644,-0.000789216,,,,,,4.9327142,0.44554803,-17.64657756,-32.6201734,3.291531066,Failure
3.906309681,1.927126145,8.57648E-05,-0.000824029,,,,,,4.934616904,0.392207731,-18.02034938,-33.64274051,3.411878387,Failure
3.906309681,1.927126145,8.57648E-05,-0.000824029,,,,,,4.936287529,0.731039316,-15.50796969,-27.04548457,2.734085069,Elastic
3.908615062,0.100366612,1.77123E-05,-6.68E-05,,,,,,4.943012071,0.571259965,-16.71369972,-30.11960092,3.009537299,Failure
3.909178518,0.301099837,4.80536E-05,-0.000192387,,,,,,4.948277767,1.737357099,-6.403718839,-6.721027975,1.587017434,Elastic
3.909178518,0.301099837,4.80536E-05,-0.000192387,,,,,,4.948301087,0.856161243,-14.52411109,-24.50668033,2.513869941,Elastic
3.911596138,0.501116287,7.214E-05,-0.000307005,,,,,,4.949917404,1.878582655,-4.817007788,-3.76377573,1.355877462,Elastic
3.911596138,0.501116287,7.214E-05,-0.000307005,,,,,,4.95033679,0.813154377,-14.85823952,-25.32563312,2.566485296,Elastic
3.912515866,0.700523213,9.05452E-05,-0.000410866,,,,,,4.952911161,1.110999951,-12.41542269,-19.43171602,2.185924605,Elastic
3.914619228,0.897173144,0.00010353,-0.000503003,,,,,,4.953402266,0.265568889,-19.42308519,-36.06092123,3.843053069,Failure
3.916030918,2.464470636,6.56907E-06,-0.000874331,,,,,,4.954246637,1.51945002,-8.671165036,-11.18185204,1.797382471,Elastic
3.916030918,2.464470636,6.56907E-06,-0.000874331,,,,,,4.956242705,0.104010281,-21.88384677,-39.27076939,4.526951217,Failure
3.917043958,2.266988646,4.22652E-05,-0.000864819,,,,,,4.958134215,1.792397519,-5.785371255,-5.485238165,1.476255006,Elastic
3.917043958,2.266988646,4.22652E-05,-0.000864819,,,,,,4.969496973,1.998722823,-3.891096002,-1.000542213,1.344452265,Elastic
3.917906224,1.09106608,0.000111441,-0.0005838,,,,,,4.97554954,0.022173789,-23.04108963,-40.8014488,4.81973642,Failure
3.917906224,1.09106608,0.000111441,-0.0005838,,,,,,4.980850444,0.551232698,-16.791088,-30.33051543,2.990619113,Failure
3.919923115,2.118225285,6.39724E-05,-0.000849398,,,,,,4.987325192,1.96927193,-3.851158012,-1.339233906,1.047979047,Elastic
3.919923115,2.118225285,6.39724E-05,-0.000849398,,,,,,4.989589847,1.664947386,-7.139902947,-7.943264815,1.551368885,Elastic
3.925021481,1.285068811,0.000114472,-0.000654278,,,,,,4.990129847,1.504030793,-8.788335451,-11.27863355,1.72191661,Elastic
3.925021481,1.285068811,0.000114472,-0.000654278,,,,,,4.990210378,0.288836899,-18.93190104,-35.44205421,3.681645059,Failure
3.930805718,1.474742991,0.000112486,-0.000713634,,,,,,4.994939667,1.62530926,-7.554917495,-8.741323864,1.581299897,Elastic
3.9375,2.53125,-8.38E-06,-0.000868317,,,,,,4.997704927,1.886197897,-4.640779338,-3.220873474,1.182035374,Elastic
3.939633118,1.653963086,0.000105818,-0.000760311,,,,,,4.997806952,1.265610912,-11.01747604,-16.08509167,1.935841813,Elastic
3.944695972,2.344659097,2.83984E-05,-0.000862543,,,,,,5.000777888,0.962080444,-13.59775749,-22.13502855,2.271986834,Elastic
3.944695972,2.344659097,2.83984E-05,-0.000862543,,,,,,5.001558247,1.222419491,-11.39730403,-16.93339755,1.971601998,Elastic
3.950454286,2.047132375,7.26368E-05,-0.000833297,,,,,,5.006433748,1.347101228,-10.26815381,-14.38814353,1.835492111,Elastic
3.950454286,2.047132375,7.26368E-05,-0.000833297,,,,,,5.008333608,1.774714942,-5.899845823,-5.515113505,1.35497084,Elastic
3.951503682,1.822729097,9.48782E-05,-0.000795488,,,,,,5.012665834,0.710932194,-15.52162958,-27.03019326,2.635276602,Elastic
3.951503682,1.822729097,9.48782E-05,-0.000795488,,,,,,5.013745616,1.692151302,-6.826792703,-7.215030486,1.449615277,Elastic
3.962199849,2.18953274,5.34128E-05,-0.000846947,,,,,,5.018100184,1.978435233,-3.920967908,-0.909158414,0.775192286,Elastic
3.962199849,2.18953274,5.34128E-05,-0.000846947,,,,,,5.023629226,1.893916899,-4.486694295,-2.790339435,1.08920691,Elastic
3.966666667,0,0,0,,,,,,5.024029894,1.14450383,-12.05083187,-18.37620839,2.008842898,Elastic
3.967230123,0.200733225,3.37919E-05,-0.00012997,,,,,,5.032892404,0.129488817,-21.16725918,-38.4212393,4.268788896,Failure
3.96779358,0.40146645,6.10262E-05,-0.000249313,,,,,,5.034257907,1.782433944,-5.743514406,-5.164339774,1.232124699,Elastic
3.96779358,0.40146645,6.10262E-05,-0.000249313,,,,,,5.035057991,0.986739951,-13.35416649,-21.46657465,2.175992309,Elastic
3.96779358,0.40146645,6.10262E-05,-0.000249313,,,,,,5.03753698,1.607004943,-7.696075182,-8.869870974,1.482508981,Elastic
3.96779358,0.40146645,6.10262E-05,-0.000249313,,,,,,5.044520607,1.701314605,-6.695376326,-6.865750927,1.336283773,Elastic
3.96779358,0.40146645,6.10262E-05,-0.000249313,,,,,,5.046718574,0.446380562,-17.39764677,-32.06532552,3.117086697,Failure
3.96779358,0.40146645,6.10262E-05,-0.000249313,,,,,,5.048321378,0.401447655,-17.70585711,-32.93233446,3.200641899,Failure
3.968713308,0.600873376,8.22217E-05,-0.000357314,,,,,,5.050504207,0.690904927,-15.60914487,-27.25741577,2.608991229,Elastic
3.969633037,0.800280302,9.79946E-05,-0.000454819,,,,,,5.052142211,1.455954498,-9.19349748,-11.91416621,1.61285081,Elastic
3.969633037,0.800280302,9.79946E-05,-0.000454819,,,,,,5.0585223,0.86756906,-14.25799679,-23.7164481,2.295720209,Elastic
3.972347986,2.422329549,1.28291E-05,-0.000857672,,,,,,5.059927592,0.529120021,-16.78378596,-30.38356687,2.91246044,Failure
3.972347986,2.422329549,1.28291E-05,-0.000857672,,,,,,5.060938903,0.816515184,-14.67159102,-24.73104706,2.376576415,Elastic
3.972920032,0.994173238,0.000108354,-0.000539375,,,,,,5.067445843,0.31835386,-18.2162334,-34.53066631,3.447581761,Failure
3.976207028,1.188066175,0.000113839,-0.000613979,,,,,,5.069700516,0.152756827,-20.64718657,-37.79215047,4.08516482,Failure
3.976207028,1.188066175,0.000113839,-0.000613979,,,,,,5.071520152,1.914790069,-4.035401186,-1.988579107,0.721331032,Elastic
3.976207028,1.188066175,0.000113839,-0.000613979,,,,,,5.072693406,1.681042547,-6.860761458,-7.110225726,1.279842944,Elastic
3.976207028,1.188066175,0.000113839,-0.000613979,,,,,,5.075090733,1.635534314,-7.345740148,-8.05674005,1.336294881,Elastic
3.976207028,1.188066175,0.000113839,-0.000613979,,,,,,5.079736963,1.828604933,-5.203669769,-3.897949767,0.999219644,Elastic
3.976207028,1.188066175,0.000113839,-0.000613979,,,,,,5.080657893,1.981834229,-2.90802786,-0.366638885,0.229269889,Elastic
3.980985458,1.976039465,8.05045E-05,-0.000816305,,,,,,5.087535886,1.048441029,-12.7827789,-19.97655467,1.996859639,Elastic
3.980985458,1.976039465,8.05045E-05,-0.000816305,,,,,,5.088515575,0.026322724,-22.50743518,-40.25271989,4.573660754,Failure
3.981991265,1.377740354,0.000114369,-0.000676998,,,,,,5.09921655,0.896842605,-13.9806202,-22.93063041,2.179243474,Elastic
3.987775503,1.567414533,0.000109813,-0.000730386,,,,,,5.099668532,1.782433944,-5.61374401,-4.795734615,1.018295132,Elastic
3.987775503,1.567414533,0.000109813,-0.000730386,,,,,,5.103559301,1.517456812,-8.529539169,-10.37782761,1.406129933,Elastic
3.989851863,2.267203191,4.06198E-05,-0.000846198,,,,,,5.10585721,0.792740617,-14.74989872,-24.94210414,2.318957552,Elastic
3.99273102,2.11843983,6.30649E-05,-0.000832338,,,,,,5.113775456,0.637097693,-15.88880164,-28.02610612,2.607495679,Failure
3.999646066,1.736180544,0.000101114,-0.000768482,,,,,,5.117628355,1.360262721,-10.02569313,-13.54355324,1.558757091,Elastic
4,2.5,-4.56E-06,-0.000850114,,,,,,5.12340079,1.765357127,-5.816790846,-5.049466454,0.960207873,Elastic
4,2.5,-4.56E-06,-0.000850114,,,,,,5.128898002,0.21315321,-19.45778284,-36.29356506,3.69656069,Failure
4,2.5,-4.56E-06,-0.000850114,,,,,,5.132210848,0.053944408,-21.9002134,-39.51808631,4.365141489,Failure
4,2.5,-4.56E-06,-0.000850114,,,,,,5.135193906,1.541489441,-8.245579723,-9.730015841,1.286328177,Elastic
4.011516629,1.904946556,8.75496E-05,-0.000798446,,,,,,5.135224501,1.157665323,-11.80722557,-17.5615273,1.762721673,Elastic
4.011516629,1.904946556,8.75496E-05,-0.000798446,,,,,,5.135642022,1.914790069,-3.793953577,-1.777060181,0.476797093,Elastic
4.011516629,1.904946556,8.75496E-05,-0.000798446,,,,,,5.14164038,1.282635682,-10.70494873,-15.00921777,1.59549101,Elastic
4.011516629,1.904946556,8.75496E-05,-0.000798446,,,,,,5.145144323,0.876106844,-14.07400824,-23.13029348,2.128922549,Elastic
4.011516629,1.904946556,8.75496E-05,-0.000798446,,,,,,5.145391675,1.239444261,-11.08546204,-15.86748256,1.640190539,Elastic
4.011516629,1.904946556,8.75496E-05,-0.000798446,,,,,,5.148487446,1.00016597,-13.09479334,-20.65234778,1.942876001,Elastic
4.017503877,2.344873643,2.61604E-05,-0.000842909,,,,,,5.149368381,0.823058733,-14.47357777,-24.17315595,2.211914926,Elastic
4.023262191,2.047346921,7.19051E-05,-0.000816822,,,,,,5.163601379,1.981834229,-2.330884076,-0.319471377,0.030770714,Elastic
4.02491075,0.501223539,7.2417E-05,-0.000302228,,,,,,5.171302463,0.696200655,-15.35049101,-26.56921173,2.386379157,Elastic
4.02491075,0.501223539,7.2417E-05,-0.000302228,,,,,,5.171983336,1.893916899,-3.9307191,-2.070686697,0.409977772,Elastic
4.025281728,0.100366612,1.77936E-05,-6.59E-05,,,,,,5.17284776,1.68271004,-6.671131995,-6.602071653,0.951885029,Elastic
4.025830479,0.700630465,9.08774E-05,-0.000403852,,,,,,5.174867225,1.644374723,-7.102682743,-7.407613585,1.0164862,Elastic
4.025845185,0.301099837,4.82495E-05,-0.000189544,,,,,,5.177028607,0.027621684,-22.09690062,-39.85875872,4.355796296,Failure
4.025845185,0.301099837,4.82495E-05,-0.000189544,,,,,,5.178345818,0.53431141,-16.48377725,-29.73942561,2.704693995,Failure
4.027933841,0.897280396,0.000103904,-0.000493634,,,,,,5.185864069,0.323545249,-17.85183814,-33.8577015,3.188350204,Failure
4.031220836,1.091173333,0.000111837,-0.00057197,,,,,,5.187176176,0.982698539,-13.17867337,-20.82798018,1.89367033,Elastic
4.031220836,1.091173333,0.000111837,-0.00057197,,,,,,5.188267515,1.393676742,-9.62477791,-12.54329296,1.344738022,Elastic
4.033176813,1.280737717,0.000114825,-0.000639049,,,,,,5.190498772,0.158052555,-20.04935046,-37.15734423,3.793581085,Failure
4.033176813,1.280737717,0.000114825,-0.000639049,,,,,,5.191057538,1.748502948,-5.868359588,-5.152373355,0.770775068,Elastic
4.035007754,2.189747286,5.20382E-05,-0.000828927,,,,,,5.195715594,1.876840083,-4.119287448,-2.420591049,0.404837648,Elastic
4.035007754,2.189747286,5.20382E-05,-0.000828927,,,,,,5.19989596,0.453095773,-17.00384015,-31.26052338,2.859938499,Failure
4.03896105,1.470411896,0.000112878,-0.000696089,,,,,,5.200530211,1.568684014,-7.872562264,-8.885900089,1.064776842,Elastic
4.045155891,2.422544094,9.91245E-06,-0.000836994,,,,,,5.201498764,0.408162866,-17.31394719,-32.13265033,2.948413279,Failure
4.045155891,2.422544094,9.91245E-06,-0.000836994,,,,,,5.20795549,0.721740089,-15.09136059,-25.90365282,2.266786244,Elastic
4.04778845,1.649631991,0.000106129,-0.00074047,,,,,,5.210174043,1.14145074,-11.8475019,-17.55716252,1.627871206,Elastic
4.053793363,1.976254011,7.99019E-05,-0.000800424,,,,,,5.21990212,1.41770937,-9.352190164,-11.92285973,1.234855809,Elastic
4.053793363,1.976254011,7.99019E-05,-0.000800424,,,,,,5.224278345,1.978435233,-2.261263915,-0.390530129,0.037938627,Elastic
4.059659014,1.818398003,9.49381E-05,-0.000773385,,,,,,5.228252445,0.135878766,-20.2389168,-37.46820625,3.795599008,Failure
4.059659014,1.818398003,9.49381E-05,-0.000773385,,,,,,5.246962597,1.834688084,-4.602515448,-3.202307333,0.389346595,Elastic
4.0625,2.46875,-6.96E-07,-0.000831928,,,,,,5.248101845,1.299316556,-10.41648151,-14.22180216,1.332014512,Elastic
4.062659768,2.267417737,3.87265E-05,-0.000827198,,,,,,5.248862773,1.123983308,-11.94130732,-17.74914713,1.572215453,Elastic
4.065538925,2.118654376,6.1921E-05,-0.000814934,,,,,,5.252451144,1.958163175,-2.576378224,-0.760922194,0.068279491,Elastic
4.08202792,0.600980628,8.23219E-05,-0.000351388,,,,,,5.252555044,1.248043592,-10.86891277,-15.24044376,1.392882568,Elastic
4.08202792,0.600980628,8.23219E-05,-0.000351388,,,,,,5.254826086,0.563243637,-16.10707518,-28.85301313,2.498330425,Failure
4.082829364,0.402522233,6.12308E-05,-0.000246035,,,,,,5.260989516,0.884734964,-13.82727104,-22.46768705,1.904754161,Elastic
4.082829364,0.402522233,6.12308E-05,-0.000246035,,,,,,5.26418602,0.300847838,-17.8133015,-34.02032001,3.118274632,Failure
4.082947649,0.800387554,9.81043E-05,-0.000446554,,,,,,5.264547785,0.84004819,-14.15350056,-23.33714109,1.974428193,Elastic
4.082947649,0.800387554,9.81043E-05,-0.000446554,,,,,,5.266016356,1.472992237,-8.745988977,-10.62084303,1.041183447,Elastic
4.083333333,0,0,0,,,,,,5.269012572,0.966506792,-13.18629356,-20.81182825,1.762179417,Elastic
4.08389679,0.200733225,3.38461E-05,-0.000128115,,,,,,5.284209435,1.979727942,-2.128193416,-0.363027303,0.015309678,Elastic
4.08389679,0.200733225,3.38461E-05,-0.000128115,,,,,,5.285655598,1.327845927,-10.10486313,-13.50612552,1.208035122,Elastic
4.085999139,1.189271818,0.000113962,-0.000601525,,,,,,5.285703298,0.756895164,-14.71195223,-24.89157779,2.07016953,Elastic
4.085999139,1.189271818,0.000113962,-0.000601525,,,,,,5.290171566,0.02326801,-21.69583312,-39.53265033,4.085888012,Failure
4.086234645,0.994280491,0.000108464,-0.000528686,,,,,,5.291479113,0.588783071,-15.86248124,-28.21077216,2.387193956,Failure
4.086234645,0.994280491,0.000108464,-0.000528686,,,,,,5.295435336,1.753669353,-5.578065794,-4.781740403,0.465224658,Elastic
4.090146597,1.37340926,0.00011447,-0.00066051,,,,,,5.298482818,1.227307831,-10.98725348,-15.48749034,1.323806062,Elastic
4.090146597,1.37340926,0.00011447,-0.00066051,,,,,,5.301939693,0.278674049,-17.90167893,-34.3538007,3.127619567,Failure
4.090311782,2.345088188,2.3668E-05,-0.000822902,,,,,,5.302191232,1.882110325,-3.747033111,-2.206657892,0.163070368,Elastic
4.090311782,2.345088188,2.3668E-05,-0.000822902,,,,,,5.30490801,1.573850419,-7.642563592,-8.437548395,0.781705529,Elastic
4.095930834,1.563083439,0.00010991,-0.000711487,,,,,,5.30598863,0.109142928,-20.33170864,-37.71734044,3.712031802,Failure
4.095930834,1.563083439,0.00010991,-0.000711487,,,,,,5.307863449,1.689392933,-6.338786689,-6.071985427,0.565338988,Elastic
4.096070097,2.047561466,7.09401E-05,-0.00080004,,,,,,5.309882913,1.651057617,-6.779465646,-6.84538119,0.632395499,Elastic
4.096070097,2.047561466,7.09401E-05,-0.00080004,,,,,,5.313477457,0.462240478,-16.66728179,-30.63552321,2.622531067,Failure
4.107655891,2.391294094,1.37917E-05,-0.000818838,,,,,,5.315380161,0.40890018,-17.05608701,-31.6926987,2.758027868,Failure
4.107801398,1.73184945,0.000101058,-0.000747328,,,,,,5.316701187,1.075731086,-12.24269158,-18.45526274,1.507016058,Elastic
4.107801398,1.73184945,0.000101058,-0.000747328,,,,,,5.326377758,1.422979612,-9.144123213,-11.44399716,0.97446482,Elastic
4.107815659,2.189961831,5.04271E-05,-0.000810579,,,,,,5.328943844,1.900276096,-3.420895832,-1.848331365,0.101837243,Elastic
4.107815659,2.189961831,5.04271E-05,-0.000810579,,,,,,5.330344913,1.309377048,-10.20737291,-13.72616331,1.137167221,Elastic
4.116846084,1.909159518,8.63361E-05,-0.000776862,,,,,,5.338718934,1.260111916,-10.63897955,-14.68906206,1.192120618,Elastic
4.116846084,1.909159518,8.63361E-05,-0.000776862,,,,,,5.35027366,0.654108881,-15.30283192,-26.69047435,2.151840679,Elastic
4.125,2.4375,3.21341E-06,-0.0008138,,,,,,5.351943481,1.982923184,-2.028377573,-0.308609945,0.00135541,Elastic
4.135467673,2.267632283,3.65941E-05,-0.000807877,,,,,,5.356988628,0.492558594,-16.36547358,-29.82603981,2.464208752,Failure
4.135467673,2.267632283,3.65941E-05,-0.000807877,,,,,,5.36019792,0.382577456,-17.01529184,-31.95840739,2.704620314,Failure
4.13834683,2.118868922,6.05463E-05,-0.000797237,,,,,,5.362954697,0.219534968,-18.50411427,-35.28388308,3.181753552,Failure
4.13834683,2.118868922,6.05463E-05,-0.000797237,,,,,,5.364023232,1.407421762,-9.238044655,-11.64963265,0.916283862,Elastic
4.139145091,0.700737717,9.07494E-05,-0.000396728,,,,,,5.364892117,1.777310263,-5.128074026,-4.209930953,0.270891265,Elastic
4.139145091,0.700737717,9.07494E-05,-0.000396728,,,,,,5.371323199,1.137439273,-11.65015936,-17.03530232,1.309215575,Elastic
4.139946534,0.502279322,7.24247E-05,-0.000297806,,,,,,5.372450703,1.919898015,-3.051815209,-1.467898725,0.040755396,Elastic
4.140880969,0.30215562,4.83315E-05,-0.000187318,,,,,,5.376685232,1.553442576,-7.740876529,-8.675540981,0.65282539,Elastic
4.141012947,1.092378976,0.000111693,-0.000560697,,,,,,5.389060218,0.979697641,-12.89545455,-20.11027698,1.518266992,Elastic
4.141248453,0.897387649,0.000103744,-0.000484103,,,,,,5.391644729,1.795476034,-4.835111523,-3.83006738,0.19715943,Elastic
4.141248453,0.897387649,0.000103744,-0.000484103,,,,,,5.404116488,0.468636746,-16.44196744,-30.17483628,2.451140218,Failure
4.141948395,0.100366612,1.77776E-05,-6.50E-05,,,,,,5.405217378,1.165072844,-11.36592834,-16.37775421,1.202358618,Elastic
4.141948395,0.100366612,1.77776E-05,-6.50E-05,,,,,,5.405423076,0.411995907,-16.79681834,-31.311786,2.587104244,Failure
4.142968923,1.28194336,0.000114625,-0.000625198,,,,,,5.405750944,0.770086013,-14.41522791,-24.2059673,1.837473285,Elastic
4.147116382,1.466080802,0.000112702,-0.000678305,,,,,,5.40831092,1.697654662,-6.052067794,-5.732539076,0.340909441,Elastic
4.147116382,1.466080802,0.000112702,-0.000678305,,,,,,5.410708247,1.652146429,-6.587177414,-6.634419219,0.414575543,Elastic
4.152811782,2.313838188,2.74744E-05,-0.000804799,,,,,,5.413939538,0.602239036,-15.51456819,-27.50083954,2.141780543,Elastic
4.155943782,1.645300897,0.000105889,-0.000720315,,,,,,5.414330706,1.537884725,-7.840543807,-8.905290062,0.60111482,Elastic
4.155943782,1.645300897,0.000105889,-0.000720315,,,,,,5.416274603,0.901797706,-13.44240199,-21.56101272,1.595191742,Elastic
4.159122818,1.980466973,7.81678E-05,-0.000777475,,,,,,5.419832873,0.857110932,-13.76592469,-22.4370649,1.665506377,Elastic
4.164988468,1.822610965,9.37977E-05,-0.000752926,,,,,,5.420923442,1.838879284,-4.193324558,-2.979516418,0.09373046,Elastic
4.170155891,2.360044094,1.76697E-05,-0.000800771,,,,,,5.421969814,0.278674049,-17.58627011,-33.91575207,2.892717734,Failure
4.180623564,2.190176377,4.85884E-05,-0.000791956,,,,,,5.423653854,0.109142928,-19.88109003,-37.29660621,3.417021929,Failure
4.180623564,2.190176377,4.85884E-05,-0.000791956,,,,,,5.43974132,1.326855808,-9.879961176,-13.05881678,0.888515024,Elastic
4.180623564,2.190176377,4.85884E-05,-0.000791956,,,,,,5.440069211,1.719219429,-5.736277961,-5.27574171,0.25123672,Elastic
4.180623564,2.190176377,4.85884E-05,-0.000791956,,,,,,5.442374921,0.02326801,-21.09898576,-39.00086205,3.693063981,Failure
4.180623564,2.190176377,4.85884E-05,-0.000791956,,,,,,5.442599458,1.400015243,-9.185116543,-11.59591264,0.768364268,Elastic
4.180623564,2.190176377,4.85884E-05,-0.000791956,,,,,,5.443469928,1.919898015,-2.997250119,-1.456136636,0.001501567,Elastic
4.1875,2.40625,7.15003E-06,-0.000795772,,,,,,5.443808894,1.982923184,-2.030897399,-0.308238298,-0.007369435,Elastic
4.195791249,1.190477461,0.000113504,-0.000588844,,,,,,5.446795445,1.285355748,-10.24915574,-13.86710042,0.939495612,Elastic
4.195791249,1.190477461,0.000113504,-0.000588844,,,,,,5.453639199,0.582087703,-15.5606056,-27.7659282,2.117307165,Failure
4.196026755,0.995486134,0.000108067,-0.000518614,,,,,,5.455397562,1.63367755,-6.724616069,-6.93537015,0.366390181,Elastic
4.196262261,0.800494807,9.77041E-05,-0.000438188,,,,,,5.46006667,0.303455622,-17.25663905,-33.23908379,2.722350671,Failure
4.196262261,0.800494807,9.77041E-05,-0.000438188,,,,,,5.464091335,1.795476034,-4.729727739,-3.788257208,0.107345853,Elastic
4.196262261,0.800494807,9.77041E-05,-0.000438188,,,,,,5.464921689,1.013217246,-12.51496715,-19.20691744,1.330116223,Elastic
4.196262261,0.800494807,9.77041E-05,-0.000438188,,,,,,5.475688143,1.20535149,-10.91255207,-15.37828951,1.010132665,Elastic
4.196262261,0.800494807,9.77041E-05,-0.000438188,,,,,,5.475960362,1.704699783,-5.858355443,-5.525035874,0.221980193,Elastic
4.196262261,0.800494807,9.77041E-05,-0.000438188,,,,,,5.481491112,1.500873425,-8.118283849,-9.513425213,0.536397428,Elastic
4.197063705,0.602036411,8.20773E-05,-0.000345774,,,,,,5.485701003,0.752258797,-14.39657081,-24.29028917,1.728764425,Elastic
4.197865149,0.403578016,6.11096E-05,-0.000242701,,,,,,5.488891386,1.664666137,-6.312862899,-6.288653537,0.26457319,Elastic
4.197865149,0.403578016,6.11096E-05,-0.000242701,,,,,,5.493255864,1.900276096,-3.258354785,-1.813657151,-0.010123078,Elastic
4.197967673,2.236382283,4.02444E-05,-0.000789849,,,,,,5.494325394,1.783244945,-4.848761505,-4.002754207,0.090970762,Elastic
4.197967673,2.236382283,4.02444E-05,-0.000789849,,,,,,5.498815868,1.040850817,-12.24175901,-18.56514012,1.227811878,Elastic
4.198932574,0.201789008,3.38757E-05,-0.000126908,,,,,,5.500485922,0.135878766,-19.21754913,-36.50001468,3.128049191,Failure
4.199938707,1.374614902,0.000113921,-0.000645227,,,,,,5.512565427,1.979727942,-2.108148799,-0.365450663,-0.012626678,Elastic
4.2,0,0,0,,,,,,5.523314195,0.471104834,-16.15511481,-29.71268778,2.224395032,Failure
4.2,0,0,0,,,,,,5.523489923,1.888045007,-3.419760267,-2.037045104,-0.017836539,Elastic
4.2,0,0,0,,,,,,5.524414842,0.423391611,-16.44522547,-30.65941467,2.342083258,Failure
4.201399551,2.051774428,6.86242E-05,-0.000775709,,,,,,5.525400664,0.732107463,-14.45974314,-24.56478808,1.703219488,Elastic
4.204086166,1.558752344,0.000109433,-0.000692377,,,,,,5.529722113,1.560204054,-7.41795103,-8.275899976,0.364549724,Elastic
4.204086166,1.558752344,0.000109433,-0.000692377,,,,,,5.531146836,0.918520843,-13.13383367,-20.88183483,1.371961629,Elastic
4.204086166,1.558752344,0.000109433,-0.000692377,,,,,,5.535370893,0.865472731,-13.50727171,-21.90417062,1.451828161,Elastic
4.204086166,1.558752344,0.000109433,-0.000692377,,,,,,5.536492306,0.559585301,-15.53626699,-27.93047882,2.016053072,Failure
4.204086166,1.558752344,0.000109433,-0.000692377,,,,,,5.538582778,0.160660339,-18.73835307,-35.87151105,2.965619915,Failure
4.204086166,1.558752344,0.000109433,-0.000692377,,,,,,5.541655092,0.335777549,-16.87835665,-32.31968635,2.47454381,Failure
4.213130853,1.736062412,9.99068E-05,-0.000728039,,,,,,5.548047174,1.109318045,-11.61010671,-17.08845594,1.036263341,Elastic
4.215311782,2.282588188,3.12353E-05,-0.000786814,,,,,,5.548456578,1.965208296,-2.33394146,-0.627898249,-0.022528741,Elastic
4.215311782,2.282588188,3.12353E-05,-0.000786814,,,,,,5.555370653,0.027621684,-20.62287045,-38.54760157,3.379438576,Failure
4.222175539,1.91337248,8.45991E-05,-0.000754707,,,,,,5.555717361,1.421894824,-8.795504481,-10.93811265,0.536968929,Elastic
4.222175539,1.91337248,8.45991E-05,-0.000754707,,,,,,5.557936707,1.586308282,-7.093823924,-7.73429569,0.285092175,Elastic
4.232655891,2.328794094,2.15302E-05,-0.000782834,,,,,,5.562741923,1.781507086,-4.798746835,-4.007228111,0.034538999,Elastic
4.232655891,2.328794094,2.15302E-05,-0.000782834,,,,,,5.568203306,1.724049845,-5.500088271,-5.087965566,0.089267269,Elastic
4.243676285,2.123081884,5.75762E-05,-0.000771512,,,,,,5.571382952,0.951324928,-12.819309,-20.13339222,1.252335555,Elastic
4.243676285,2.123081884,5.75762E-05,-0.000771512,,,,,,5.573779529,1.985480354,-2.063707715,-0.261533879,-0.011933991,Elastic
4.25,2.375,1.10979E-05,-0.000777888,,,,,,5.579096168,1.690326223,-5.888181163,-5.721529505,0.119588371,Elastic
4.25,2.375,1.10979E-05,-0.000777888,,,,,,5.582498753,0.841550884,-13.60791525,-22.26461571,1.420473795,Elastic
4.250805057,1.093584619,0.000110976,-0.000549278,,,,,,5.585288408,1.862525817,-3.739976989,-2.498730075,-0.033178043,Elastic
4.251040563,0.898593291,0.000103119,-0.000475239,,,,,,5.586062586,1.355157677,-9.389437821,-12.19107382,0.593251193,Elastic
4.251040563,0.898593291,0.000103119,-0.000475239,,,,,,5.588806047,1.227231071,-10.54534494,-14.68548523,0.786074511,Elastic
4.252761033,1.283149003,0.00011382,-0.000611147,,,,,,5.591969589,0.675562433,-14.69611269,-25.45585013,1.692659973,Elastic
4.254180875,0.7017935,9.02055E-05,-0.000389881,,,,,,5.593116711,1.313657617,-9.763381253,-12.98761461,0.645997116,Elastic
4.254180875,0.7017935,9.02055E-05,-0.000389881,,,,,,5.600595809,0.057040135,-20.05266161,-37.8369742,3.152007044,Failure
4.254982319,0.503335105,7.20414E-05,-0.000293334,,,,,,5.602354249,0.225385509,-17.66635082,-34.4105873,2.646632384,Failure
4.255916754,0.303211403,4.81503E-05,-0.000185059,,,,,,5.613836919,1.623320161,-6.609015017,-6.972300683,0.167284877,Elastic
4.256908492,1.467286445,0.000111781,-0.000661561,,,,,,5.614207275,1.063170146,-11.87940909,-17.83762153,1.003569841,Elastic
4.256908492,1.467286445,0.000111781,-0.000661561,,,,,,5.620367471,1.911496994,-3.089345217,-1.600089281,-0.04833417,Elastic
4.256984179,0.101422395,1.78392E-05,-6.47E-05,,,,,,5.624224369,0.933301865,-12.86802791,-20.35245508,1.196946988,Elastic
4.256984179,0.101422395,1.78392E-05,-6.47E-05,,,,,,5.625735905,1.458042959,-8.33192965,-10.13308785,0.382154182,Elastic
4.260467673,2.205132283,4.38026E-05,-0.000771972,,,,,,5.631116113,0.876575932,-13.26744582,-21.43496242,1.278386165,Elastic
4.260467673,2.205132283,4.38026E-05,-0.000771972,,,,,,5.641699069,1.928573811,-2.870706848,-1.289774419,-0.047293747,Elastic
4.261273237,1.649513859,0.000104657,-0.000702243,,,,,,5.645225156,0.029418451,-20.27532537,-38.23491822,3.113005912,Failure
4.261273237,1.649513859,0.000104657,-0.000702243,,,,,,5.64806058,1.987768911,-2.093678441,-0.220230792,-0.011806341,Elastic
4.264452273,1.984679935,7.59209E-05,-0.000753987,,,,,,5.651667955,0.739432695,-14.18046374,-24.08050738,1.484430598,Elastic
4.270317923,1.826823927,9.21229E-05,-0.000732001,,,,,,5.653950499,1.484147187,-8.028979098,-9.597080228,0.309872909,Elastic
4.277811782,2.251338188,3.49325E-05,-0.000768992,,,,,,5.657710738,1.80449701,-4.444732245,-3.555558654,-0.037219191,Elastic
4.295155891,2.297544094,2.53562E-05,-0.00076507,,,,,,5.658719933,1.047987842,-11.93071747,-18.03723659,0.960607885,Elastic
4.305583359,1.191683103,0.000112443,-0.000576047,,,,,,5.660271812,0.566766207,-15.24770755,-27.46454245,1.800990871,Elastic
4.305583359,1.191683103,0.000112443,-0.000576047,,,,,,5.66485007,0.167985571,-18.23194211,-35.32839032,2.642480049,Failure
4.305818865,0.996691776,0.000107111,-0.000508465,,,,,,5.665434598,0.342958455,-16.57685512,-31.83248756,2.230681538,Failure
4.305818865,0.996691776,0.000107111,-0.000508465,,,,,,5.666930051,1.215694042,-10.52617234,-14.76240949,0.688549032,Elastic
4.306729006,2.055987391,6.58091E-05,-0.00075088,,,,,,5.683426552,0.480393543,-15.75192994,-29.07687422,1.929562102,Failure
4.306729006,2.055987391,6.58091E-05,-0.00075088,,,,,,5.684527198,0.43268032,-16.04171385,-30.0165456,2.034888107,Failure
4.307343648,1.561264524,0.000108164,-0.00067554,,,,,,5.685348239,1.942627802,-2.707924795,-1.034466386,-0.045175425,Elastic
4.307343648,1.561264524,0.000108164,-0.00067554,,,,,,5.688063168,1.544341561,-7.365074341,-8.414928406,0.192028573,Elastic
4.309016905,0.804036717,9.70073E-05,-0.000431301,,,,,,5.691048204,1.753787974,-5.034468369,-4.484114409,-0.023410071,Elastic
4.309016905,0.804036717,9.70073E-05,-0.000431301,,,,,,5.692622344,0.768937165,-13.91771069,-23.40589765,1.373110765,Elastic
4.309730818,1.375820545,0.000112748,-0.000629782,,,,,,5.694065456,1.379728894,-8.995826154,-11.55339039,0.40953224,Elastic
4.309730818,1.375820545,0.000112748,-0.000629782,,,,,,5.701941066,1.720064351,-5.419294345,-5.105512227,-0.00523647,Elastic
4.312099489,0.603092194,8.13824E-05,-0.000340126,,,,,,5.702439478,1.330463762,-9.445231475,-12.48983568,0.47051102,Elastic
4.312099489,0.603092194,8.13824E-05,-0.000340126,,,,,,5.702445028,0.144717562,-18.4574495,-35.70620208,2.625620457,Failure
4.3125,2.34375,1.50407E-05,-0.000760188,,,,,,5.708805734,1.646310085,-6.24547332,-6.478331039,0.057272327,Elastic
4.312900933,0.404633799,6.06528E-05,-0.000239342,,,,,,5.711442709,1.200511738,-10.58907281,-14.98049906,0.651592236,Elastic
4.312900933,0.404633799,6.06528E-05,-0.000239342,,,,,,5.714047841,1.836435061,-4.036659151,-2.960972669,-0.067446275,Elastic
4.313968359,0.202844791,3.37158E-05,-0.000125682,,,,,,5.727559281,1.410717481,-8.652838293,-10.92183732,0.328057079,Elastic
4.313968359,0.202844791,3.37158E-05,-0.000125682,,,,,,5.735379439,1.853511878,-3.827337947,-2.647928005,-0.073643099,Elastic
4.316666667,0,0,0,,,,,,5.740018848,0.598701644,-14.89736861,-26.61896221,1.604158611,Elastic
4.318460308,1.740275374,9.82036E-05,-0.000708392,,,,,,5.746446319,0.320069564,-16.55182523,-32.10193407,2.130555124,Failure
4.318460308,1.740275374,9.82036E-05,-0.000708392,,,,,,5.74980762,1.987768911,-2.190018971,-0.220238042,-0.012620058,Elastic
4.323520394,2.138037789,5.31347E-05,-0.000752369,,,,,,5.750828048,1.507599174,-7.664539889,-9.060511263,0.179095266,Elastic
4.327504994,1.917585442,8.23478E-05,-0.000732137,,,,,,5.755280895,1.312440699,-9.535064115,-12.76715519,0.434289973,Elastic
4.327504994,1.917585442,8.23478E-05,-0.000732137,,,,,,5.756842079,1.038102624,-11.85414067,-18.03998601,0.840231344,Elastic
4.340311782,2.220088188,3.85462E-05,-0.000751374,,,,,,5.757770569,1.884598995,-3.454557757,-2.082465214,-0.073908272,Elastic
4.340311782,2.220088188,3.85462E-05,-0.000751374,,,,,,5.758126977,0.024781573,-20.01656879,-38.06062507,2.829680266,Failure
4.357655891,2.266294094,2.91292E-05,-0.000747524,,,,,,5.758757529,0.952190345,-12.50780349,-19.69715963,0.972554938,Elastic
4.360165974,1.469798625,0.000110302,-0.000646034,,,,,,5.764006742,1.942627802,-2.754585867,-1.033452771,-0.049424927,Elastic
4.360597167,1.094790261,0.000109667,-0.000537819,,,,,,5.764563011,0.904405441,-12.84942915,-20.61057011,1.039656406,Elastic
4.360597167,1.094790261,0.000109667,-0.000537819,,,,,,5.773477318,1.404166457,-8.653995825,-10.99937797,0.289441196,Elastic
4.362553144,1.284354646,0.000112388,-0.000597025,,,,,,5.777659154,1.639498398,-6.254712662,-6.573818083,0.018553412,Elastic
4.362553144,1.284354646,0.000112388,-0.000597025,,,,,,5.778700395,0.116242581,-18.67231356,-36.13366973,2.521282074,Failure
4.363795207,0.902135202,0.00010204,-0.00046702,,,,,,5.780973236,0.628206114,-14.6419084,-25.94865624,1.480417351,Elastic
4.364530719,1.652026039,0.000102983,-0.000683977,,,,,,5.78132413,1.778621835,-4.700650895,-4.008646884,-0.070306332,Elastic
4.366935519,0.705335411,8.93769E-05,-0.000384282,,,,,,5.784041277,0.296801554,-16.6310406,-32.49427668,2.101939237,Failure
4.369781728,1.988892897,7.31819E-05,-0.000730128,,,,,,5.784073769,0.81395864,-13.46030006,-22.33560998,1.162434012,Elastic
4.369781728,1.988892897,7.31819E-05,-0.000730128,,,,,,5.789508575,1.50208071,-7.674355476,-9.13606677,0.15284843,Elastic
4.370018103,0.504390888,7.12586E-05,-0.000288856,,,,,,5.79282491,1.355154807,-9.089744596,-11.90992244,0.335458148,Elastic
4.370018103,0.504390888,7.12586E-05,-0.000288856,,,,,,5.794255154,1.738588189,-5.150729061,-4.739991755,-0.058010541,Elastic
4.370952538,0.304267186,4.76994E-05,-0.000182791,,,,,,5.797600952,1.156015651,-10.83854773,-15.70548996,0.611374332,Elastic
4.370952538,0.304267186,4.76994E-05,-0.000182791,,,,,,5.802118466,0.491726311,-15.42868535,-28.5833214,1.692797639,Failure
4.373650846,0.101422395,1.76189E-05,-6.38E-05,,,,,,5.803425054,0.435085472,-15.80122744,-29.73006071,1.811529265,Failure
4.375,2.3125,1.89615E-05,-0.000742719,,,,,,5.806647081,1.798893893,-4.461672561,-3.635580245,-0.082211131,Elastic
4.375647378,1.831036889,8.99163E-05,-0.000710771,,,,,,5.815618862,1.853511878,-3.832001965,-2.643045287,-0.085779404,Elastic
4.375647378,1.831036889,8.99163E-05,-0.000710771,,,,,,5.816339682,1.633979933,-6.280947441,-6.660904458,0.002531418,Elastic
4.386573115,2.070943296,6.16635E-05,-0.000732629,,,,,,5.823685531,1.928573811,-2.958965274,-1.28637282,-0.060038349,Elastic
4.403364503,2.152993695,4.82665E-05,-0.000732695,,,,,,5.82669894,1.985480354,-2.293642671,-0.261326344,-0.015142094,Elastic
4.41060113,1.563776704,0.00010633,-0.000658606,,,,,,5.840173191,1.732037166,-5.202230661,-4.850647172,-0.069209234,Elastic
4.41060113,1.563776704,0.00010633,-0.000658606,,,,,,5.841780745,0.233815527,-16.99969337,-33.71726823,2.13656221,Failure
4.4129883,1.378332725,0.000111043,-0.000615592,,,,,,5.848054401,0.407463787,-15.89105073,-30.15883581,1.762774301,Failure
4.415375469,1.192888746,0.000110764,-0.000563258,,,,,,5.848127137,1.798893893,-4.455272367,-3.631386567,-0.090077017,Elastic
4.415375469,1.192888746,0.000110764,-0.000563258,,,,,,5.850560914,1.853511878,-3.836693915,-2.640913765,-0.089509992,Elastic
4.415375469,1.192888746,0.000110764,-0.000563258,,,,,,5.850735826,0.52675136,-15.13394485,-27.83821123,1.559407373,Failure
4.415375469,1.192888746,0.000110764,-0.000563258,,,,,,5.852375991,0.705162415,-14.04836839,-24.2977298,1.241513441,Elastic
4.415375469,1.192888746,0.000110764,-0.000563258,,,,,,5.853058372,1.224997145,-10.17333708,-14.31759509,0.452494993,Elastic
4.415375469,1.192888746,0.000110764,-0.000563258,,,,,,5.858627584,1.928573811,-2.980313935,-1.285990951,-0.060856928,Elastic
4.418573509,1.000233687,0.000105627,-0.000498893,,,,,,5.868178996,1.985480354,-2.334743674,-0.261330435,-0.015106274,Elastic
4.420155891,2.235044094,3.28287E-05,-0.00073024,,,,,,5.868722223,1.772070811,-4.750693337,-4.116295962,-0.089151441,Elastic
4.420155891,2.235044094,3.28287E-05,-0.00073024,,,,,,5.869501382,1.518456177,-7.423257686,-8.780744882,0.079602161,Elastic
4.421717789,1.742787554,9.61106E-05,-0.000688693,,,,,,5.879834126,1.451920875,-8.064822546,-10.014734,0.143271926,Elastic
4.421771548,0.807578628,9.57746E-05,-0.000424378,,,,,,5.884684775,1.260978741,-9.817678028,-13.60104948,0.373334334,Elastic
4.421771548,0.807578628,9.57746E-05,-0.000424378,,,,,,5.890243947,1.620424701,-6.366823407,-6.885373785,-0.020360679,Elastic
4.424854133,0.606634105,8.04821E-05,-0.000335787,,,,,,5.895667555,1.062105607,-11.45816914,-17.36768352,0.636919513,Elastic
4.427936717,0.405689582,5.98561E-05,-0.000235994,,,,,,5.89613219,1.410634344,-8.441251734,-10.77610152,0.178798191,Elastic
4.427936717,0.405689582,5.98561E-05,-0.000235994,,,,,,5.896365619,0.116242581,-18.39171562,-35.88322676,2.238606847,Failure
4.427936717,0.405689582,5.98561E-05,-0.000235994,,,,,,5.896378002,0.437073606,-15.62389996,-29.50034564,1.641974716,Failure
4.427936717,0.405689582,5.98561E-05,-0.000235994,,,,,,5.900366015,0.499720339,-15.21093923,-28.2358278,1.517880006,Failure
4.427936717,0.405689582,5.98561E-05,-0.000235994,,,,,,5.904071397,0.296801554,-16.40784797,-32.24386612,1.870121115,Failure
4.427936717,0.405689582,5.98561E-05,-0.000235994,,,,,,5.910330333,0.024781573,-19.63023799,-37.74728203,2.421827924,Failure
4.430635025,0.202844791,3.31991E-05,-0.000123813,,,,,,5.921672767,1.884598995,-3.507992432,-2.077128619,-0.084139596,Elastic
4.432834449,1.921798404,7.95986E-05,-0.000709327,,,,,,5.922588899,0.652691521,-14.25747875,-25.20500159,1.229171942,Elastic
4.432834449,1.921798404,7.95986E-05,-0.000709327,,,,,,5.922899245,0.837961623,-13.07351985,-21.63022017,0.938370029,Elastic
4.432834449,1.921798404,7.95986E-05,-0.000709327,,,,,,5.927824693,1.68783804,-5.638615788,-5.641455052,-0.072407077,Elastic
4.432834449,1.921798404,7.95986E-05,-0.000709327,,,,,,5.92790894,1.942627802,-2.868721119,-1.032351671,-0.051615579,Elastic
4.432834449,1.921798404,7.95986E-05,-0.000709327,,,,,,5.938332281,0.983238895,-12.00337182,-18.81802713,0.703748861,Elastic
4.432834449,1.921798404,7.95986E-05,-0.000709327,,,,,,5.939431398,1.853511878,-3.855389607,-2.636984305,-0.094820755,Elastic
4.432834449,1.921798404,7.95986E-05,-0.000709327,,,,,,5.944137763,0.935453991,-12.34734916,-19.72124434,0.766077046,Elastic
4.433333333,0,0,0,,,,,,5.944778329,0.321744332,-16.15307165,-31.62967599,1.747999978,Failure
4.4375,2.28125,2.28417E-05,-0.000725525,,,,,,5.94595048,1.32479402,-9.174011522,-12.34651265,0.242957383,Elastic
4.449625837,2.003848803,6.92718E-05,-0.000712822,,,,,,5.951873884,1.721561662,-5.273987781,-5.023360593,-0.090462614,Elastic
4.449625837,2.003848803,6.92718E-05,-0.000712822,,,,,,5.953859579,1.987768911,-2.394111137,-0.220116698,-0.012496584,Elastic
4.463423456,1.472310805,0.000108246,-0.000630509,,,,,,5.956780328,1.830916597,-4.104710496,-3.04385934,-0.099876312,Elastic
4.465810625,1.286866826,0.00011046,-0.000584185,,,,,,5.964396477,0.629921076,-14.3266839,-25.58226402,1.203900326,Elastic
4.465810625,1.286866826,0.00011046,-0.000584185,,,,,,5.974678504,0.144717562,-17.81722556,-35.11055691,2.005474807,Failure
4.466417225,2.085899202,5.71294E-05,-0.00071393,,,,,,5.978789856,1.571253142,-6.802201806,-7.760717419,-0.017236771,Elastic
4.466417225,2.085899202,5.71294E-05,-0.00071393,,,,,,5.979910347,1.103521799,-11.01217615,-16.48163224,0.495172027,Elastic
4.467788201,1.654538219,0.000100754,-0.00066568,,,,,,6.003051149,1.778611626,-4.664468175,-3.98521611,-0.105400636,Elastic
4.473351811,1.098332172,0.000107759,-0.000526881,,,,,,6.01153675,1.139503394,-10.68010188,-15.77160237,0.420703414,Elastic
4.473351811,1.098332172,0.000107759,-0.000526881,,,,,,6.013812759,0.824471122,-13.02859754,-21.76035432,0.848002449,Elastic
4.47654985,0.905677113,0.000100386,-0.000458813,,,,,,6.01502845,1.942627802,-2.932359217,-1.032034704,-0.050463823,Elastic
4.47890486,1.833549069,8.73904E-05,-0.000689645,,,,,,6.015385436,0.16966034,-17.43680531,-34.57792662,1.876085636,Failure
4.47890486,1.833549069,8.73904E-05,-0.000689645,,,,,,6.021201916,1.520215271,-7.271198105,-8.68315736,0.006927105,Elastic
4.479690162,0.708877322,8.80536E-05,-0.000378683,,,,,,6.021758543,0.442460506,-15.3676209,-29.16546622,1.416165564,Failure
4.482772747,0.507932799,7.03566E-05,-0.000285737,,,,,,6.023567202,0.029418451,-19.30232535,-37.41292856,2.128901022,Failure
4.482772747,0.507932799,7.03566E-05,-0.000285737,,,,,,6.025117974,0.495232986,-15.02126387,-28.12102159,1.326934953,Failure
4.483208612,2.167949601,4.29875E-05,-0.000712574,,,,,,6.032724181,0.350814268,-15.8851345,-30.92638239,1.53011082,Failure
4.483208612,2.167949601,4.29875E-05,-0.000712574,,,,,,6.03749998,1.478928739,-7.652650093,-9.434862821,0.034370612,Elastic
4.487619205,0.304267186,4.68265E-05,-0.000179922,,,,,,6.042361377,1.624233212,-6.234606955,-6.77711697,-0.066289723,Elastic
4.487619205,0.304267186,4.68265E-05,-0.000179922,,,,,,6.044017082,1.230883976,-9.880132194,-14.0296034,0.28423358,Elastic
4.490317513,0.101422395,1.72953E-05,-6.29E-05,,,,,,6.048482215,0.598353404,-14.38550957,-26.08235408,1.134568628,Elastic
4.5,2.25,2.66609E-05,-0.000708655,,,,,,6.055238954,1.377590985,-8.577684228,-11.29588529,0.119685813,Elastic
4.5,2.25,2.66609E-05,-0.000708655,,,,,,6.055620337,0.801700677,-13.12174965,-22.14482874,0.833571108,Elastic
4.5,2.25,2.66609E-05,-0.000708655,,,,,,6.060189664,1.928573811,-3.111185586,-1.284481216,-0.058974539,Elastic
4.512125837,1.972598803,7.15574E-05,-0.000696044,,,,,,6.066410567,1.657956834,-5.887233319,-6.160619505,-0.084821892,Elastic
4.512125837,1.972598803,7.15574E-05,-0.000696044,,,,,,6.066551175,1.987768911,-2.503037224,-0.220135139,-0.011809627,Elastic
4.513858612,1.566288884,0.000103921,-0.000641738,,,,,,6.070605322,1.010481318,-11.61820906,-18.14992573,0.534475097,Elastic
4.513858612,1.566288884,0.000103921,-0.000641738,,,,,,6.071890803,0.059028269,-18.83073698,-36.76746639,1.943568173,Failure
4.516245781,1.380844905,0.000108758,-0.000601492,,,,,,6.077497067,0.953755385,-12.02919367,-19.21420566,0.601443258,Elastic
4.516245781,1.380844905,0.000108758,-0.000601492,,,,,,6.077538594,1.90597853,-3.354975268,-1.690278774,-0.072140539,Elastic
4.516252866,1.905037793,7.93036E-05,-0.000689388,,,,,,6.087309055,0.233241322,-16.54721096,-33.2860526,1.637633639,Failure
4.516252866,1.905037793,7.93036E-05,-0.000689388,,,,,,6.091597058,1.729440067,-5.163019522,-4.865418971,-0.105380466,Elastic
4.52435812,1.201283332,0.000108571,-0.000552802,,,,,,6.096406833,1.836640433,-4.074557561,-2.935670339,-0.099037155,Elastic
4.52435812,1.201283332,0.000108571,-0.000552802,,,,,,6.108149338,1.053195426,-11.24475089,-17.31255123,0.44880951,Elastic
4.524975271,1.745299734,9.34853E-05,-0.000669042,,,,,,6.114990268,0.029609818,-19.1325167,-37.27533943,1.896880795,Failure
4.524975271,1.745299734,9.34853E-05,-0.000669042,,,,,,6.119005468,0.731152612,-13.48616186,-23.40769951,0.852241113,Elastic
4.528917225,2.054649202,5.99174E-05,-0.000697224,,,,,,6.123021762,1.193361501,-10.10500926,-14.67520213,0.27455685,Elastic
4.531328152,1.003775598,0.000103534,-0.000489395,,,,,,6.124884676,1.573930397,-6.684065625,-7.674356692,-0.054486048,Elastic
4.531328152,1.003775598,0.000103534,-0.000489395,,,,,,6.127127256,0.926724364,-12.16131731,-19.68773149,0.58942705,Elastic
4.534526192,0.811120539,9.40048E-05,-0.000417507,,,,,,6.137537576,1.383131243,-8.451750047,-11.15643152,0.07873551,Elastic
4.534526192,0.811120539,9.40048E-05,-0.000417507,,,,,,6.144232268,1.524918747,-7.139998409,-8.561580095,-0.029588572,Elastic
4.537608776,0.610176016,7.91351E-05,-0.000331469,,,,,,6.1480476,0.170440526,-17.20178945,-34.35327759,1.58943267,Failure
4.537608776,0.610176016,7.91351E-05,-0.000331469,,,,,,6.148304024,1.985480354,-2.600138929,-0.261196863,-0.013123331,Elastic
4.543355221,0.40857506,5.89243E-05,-0.00023362,,,,,,6.153433707,1.613964043,-6.285132388,-6.943909258,-0.076859775,Elastic
4.543355221,0.40857506,5.89243E-05,-0.00023362,,,,,,6.161254214,1.050375935,-11.20275389,-17.32239926,0.409074013,Elastic
4.545708612,2.136699601,4.62682E-05,-0.000695964,,,,,,6.161642562,1.717151934,-5.276364156,-5.08114363,-0.104910266,Elastic
4.547301692,0.202844791,3.24899E-05,-0.000121978,,,,,,6.162772565,0.351579082,-15.69324024,-30.73196426,1.309672976,Failure
4.547301692,0.202844791,3.24899E-05,-0.000121978,,,,,,6.167756353,1.190986412,-10.07729031,-14.69204541,0.249852493,Elastic
4.55,0,0,0,,,,,,6.167864145,1.855818695,-3.902837531,-2.589695958,-0.090289872,Elastic
4.562323277,1.816788458,8.66906E-05,-0.00067061,,,,,,6.16889911,1.958657272,-2.883064219,-0.743697247,-0.034377297,Elastic
4.5625,2.21875,3.03971E-05,-0.000692162,,,,,,6.175423445,0.951346061,-11.92575294,-19.16970495,0.512772683,Elastic
4.566680937,1.474822985,0.000105607,-0.000615148,,,,,,6.178530598,0.599118218,-14.20092919,-25.90519706,0.955822865,Elastic
4.566680937,1.474822985,0.000105607,-0.000615148,,,,,,6.182272168,1.380756154,-8.434777298,-11.18248463,0.065158734,Elastic
4.571045682,1.657050399,9.79636E-05,-0.000647539,,,,,,6.184353813,0.145658952,-17.45802434,-34.77734941,1.555804678,Failure
4.571045682,1.657050399,9.79636E-05,-0.000647539,,,,,,6.1882825,0.802480862,-12.9393718,-21.98915203,0.681195584,Elastic
4.574793276,1.295261412,0.000107805,-0.000572293,,,,,,6.189096592,1.005061135,-11.51295929,-18.15071748,0.439471014,Elastic
4.582334462,1.106726758,0.00010543,-0.000517995,,,,,,6.189979873,0.443449815,-15.10865926,-28.90967197,1.155412392,Failure
4.589304494,0.909219024,9.81614E-05,-0.000450722,,,,,,6.193339304,0.496222295,-14.77072004,-27.88546836,1.070324378,Failure
4.589304494,0.909219024,9.81614E-05,-0.000450722,,,,,,6.197337144,1.522099256,-7.135289752,-8.600877066,-0.037043775,Elastic
4.591417225,2.023399202,6.24504E-05,-0.000680931,,,,,,6.200936002,1.628483689,-6.128295983,-6.67544856,-0.0854866,Elastic
4.591417225,2.023399202,6.24504E-05,-0.000680931,,,,,,6.20165764,1.729383023,-5.152979853,-4.858486017,-0.10564099,Elastic
4.592444806,0.712419233,8.62393E-05,-0.000373158,,,,,,6.207879222,1.868049784,-3.796937852,-2.369655931,-0.083284454,Elastic
4.592444806,0.712419233,8.62393E-05,-0.000373158,,,,,,6.216401404,1.973176919,-2.776966255,-0.482289356,-0.022104717,Elastic
4.595544253,1.955838192,7.11683E-05,-0.000676073,,,,,,6.225491846,1.585630552,-6.525587762,-7.445231126,-0.071202601,Elastic
4.598191251,0.510818277,6.89539E-05,-0.000282222,,,,,,6.227403719,0.024942778,-19.00502134,-37.19940463,1.645048843,Failure
4.599671282,1.888277181,7.8695E-05,-0.000669981,,,,,,6.228966341,0.823221736,-12.75390334,-21.55752918,0.618767359,Elastic
4.599671282,1.888277181,7.8695E-05,-0.000669981,,,,,,6.245661823,0.323513827,-15.7152154,-31.17947419,1.206468816,Failure
4.603037709,0.307152664,4.60641E-05,-0.000178699,,,,,,6.253853008,1.219743181,-9.755633362,-14.11448835,0.177425467,Elastic
4.606984179,0.101422395,1.68708E-05,-6.20E-05,,,,,,6.257610104,0.116998741,-17.74883139,-35.29243595,1.438402035,Failure
4.606984179,0.101422395,1.68708E-05,-6.20E-05,,,,,,6.26507488,1.36645019,-8.497177553,-11.41670116,0.051765897,Elastic
4.608208612,2.105449601,4.93626E-05,-0.000679774,,,,,,6.26527997,0.631690571,-13.90141966,-25.18069391,0.803495587,Elastic
4.608393688,1.728539123,9.23307E-05,-0.00065095,,,,,,6.272774442,1.125633531,-10.49842839,-15.84631746,0.256067845,Elastic
4.617116093,1.568801064,0.000100935,-0.000625124,,,,,,6.279295225,1.786812265,-4.601578007,-3.824424888,-0.098639597,Elastic
4.617116093,1.568801064,0.000100935,-0.000625124,,,,,,6.281968036,0.298732254,-15.83429633,-31.6495606,1.170943287,Failure
4.617116093,1.568801064,0.000100935,-0.000625124,,,,,,6.284105,1.894012631,-3.578760446,-1.903353198,-0.067058226,Elastic
4.617116093,1.568801064,0.000100935,-0.000625124,,,,,,6.293202757,0.922821667,-11.99656702,-19.62164806,0.447359472,Elastic
4.617116093,1.568801064,0.000100935,-0.000625124,,,,,,6.296228359,1.087461159,-10.77456031,-16.54347967,0.27941232,Elastic
4.617116093,1.568801064,0.000100935,-0.000625124,,,,,,6.298737671,1.465058876,-7.599731483,-9.614491272,-0.018693046,Elastic
4.625,2.1875,3.40247E-05,-0.000676103,,,,,,6.300087597,1.729383023,-5.14903437,-4.852870898,-0.100450835,Elastic
4.625228432,1.389239491,0.000105641,-0.000588171,,,,,,6.30472077,0.968070278,-11.66088348,-18.76714573,0.391720313,Elastic
4.633340771,1.209677918,0.000105746,-0.000542425,,,,,,6.305963811,0.652431445,-13.73278736,-24.74755597,0.728462145,Elastic
4.633340771,1.209677918,0.000105746,-0.000542425,,,,,,6.309840592,0.82844154,-12.62862509,-21.39870196,0.533838256,Elastic
4.640310803,1.012170184,0.000101116,-0.000482045,,,,,,6.311215623,1.977404719,-2.806911962,-0.406493088,-0.016754288,Elastic
4.645741693,1.800027846,8.56208E-05,-0.000652193,,,,,,6.314536997,0.439532798,-14.98725753,-28.8840797,0.961853842,Failure
4.647280835,0.81466245,9.17075E-05,-0.000410778,,,,,,6.31852501,0.50217953,-14.58185672,-27.64157567,0.881394999,Failure
4.647280835,0.81466245,9.17075E-05,-0.000410778,,,,,,6.320772998,1.693284312,-5.488930127,-5.499486681,-0.096893112,Elastic
4.647280835,0.81466245,9.17075E-05,-0.000410778,,,,,,6.322454686,1.518576496,-7.103994596,-8.641917931,-0.048102914,Elastic
4.647280835,0.81466245,9.17075E-05,-0.000410778,,,,,,6.333073613,0.235336501,-16.21189074,-32.95904466,1.160684599,Failure
4.647280835,0.81466245,9.17075E-05,-0.000410778,,,,,,6.357636461,0.410114347,-15.14364276,-29.40451896,0.914466495,Failure
4.647280835,0.81466245,9.17075E-05,-0.000410778,,,,,,6.363867971,1.040688569,-11.06846841,-17.37913316,0.282832348,Elastic
4.65302728,0.613061494,7.724E-05,-0.000326808,,,,,,6.366821199,0.526801227,-14.39192021,-27.16225873,0.787695781,Elastic
4.654464099,1.640289788,9.63422E-05,-0.000630406,,,,,,6.368023846,1.302384926,-8.973987148,-12.55657397,0.070861153,Elastic
4.654464099,1.640289788,9.63422E-05,-0.000630406,,,,,,6.369365722,0.696407147,-13.40173933,-23.85583218,0.609475617,Elastic
4.658773726,0.411460538,5.76489E-05,-0.000231294,,,,,,6.375275327,0.116998741,-17.61255199,-35.17295276,1.18785804,Failure
4.658773726,0.411460538,5.76489E-05,-0.000231294,,,,,,6.376323949,1.617484545,-6.182788197,-6.855757908,-0.081506233,Elastic
4.662720196,0.205730269,3.20081E-05,-0.000121834,,,,,,6.379607075,0.024942778,-18.81479608,-37.04693272,1.284985725,Failure
4.666666667,0,0,0,,,,,,6.380595638,1.894012631,-3.621120818,-1.903048787,-0.059857073,Elastic
4.666666667,0,0,0,,,,,,6.401998156,0.298732254,-15.71183228,-31.54458417,0.965221272,Failure
4.666666667,0,0,0,,,,,,6.416519542,0.441658854,-14.86807219,-28.74849035,0.80735556,Failure
4.670708612,2.074199601,5.22291E-05,-0.000664069,,,,,,6.42045771,1.232533008,-9.517535476,-13.8185391,0.104757507,Elastic
4.670708612,2.074199601,5.22291E-05,-0.000664069,,,,,,6.421716266,0.495699002,-14.51775703,-27.6804375,0.748702924,Failure
4.674835641,2.006638591,6.20289E-05,-0.000661044,,,,,,6.430921724,0.617343285,-13.80979267,-25.32797077,0.616859611,Elastic
4.675663588,1.483217571,0.000102033,-0.000600414,,,,,,6.431122599,1.868049784,-3.87880595,-2.367954137,-0.064881773,Elastic
4.675663588,1.483217571,0.000102033,-0.000600414,,,,,,6.431905125,1.382188611,-8.254939216,-11.09032056,0.010289962,Elastic
4.67896267,1.93907758,7.04923E-05,-0.000656764,,,,,,6.432336518,0.794044707,-12.73394628,-21.97188208,0.453539186,Elastic
4.683089699,1.87151657,7.77465E-05,-0.000651255,,,,,,6.436029043,1.977404719,-2.888415641,-0.406481073,-0.013985315,Elastic
4.683089699,1.87151657,7.77465E-05,-0.000651255,,,,,,6.443911627,1.194360637,-9.809774174,-14.51065209,0.123547841,Elastic
4.683775927,1.303655998,0.000104508,-0.000560578,,,,,,6.451600203,0.325304778,-15.4796483,-30.94607859,0.86382161,Failure
4.6875,2.15625,3.75111E-05,-0.000660543,,,,,,6.451654767,0.878328372,-12.15525765,-20.36742152,0.364440551,Elastic
4.691317112,1.115121344,0.000102501,-0.00050924,,,,,,6.451808,1.831951073,-4.213445038,-3.013216347,-0.072882809,Elastic
4.691812104,1.711778511,9.07725E-05,-0.00063355,,,,,,6.455622139,1.435706231,-7.780333631,-10.11853842,-0.017749595,Elastic
4.691812104,1.711778511,9.07725E-05,-0.00063355,,,,,,6.456587289,0.145658952,-17.13641504,-34.47619474,1.007785648,Failure
4.698287144,0.91761361,9.57094E-05,-0.000444863,,,,,,6.463172779,0.923576983,-11.83353567,-19.51575613,0.318669458,Elastic
4.698287144,0.91761361,9.57094E-05,-0.000444863,,,,,,6.477164341,0.591143331,-13.91508105,-25.80294351,0.585888972,Elastic
4.70786331,0.715304711,8.38372E-05,-0.000367357,,,,,,6.477624362,1.724684911,-5.193611914,-4.930800356,-0.082615954,Elastic
4.70786331,0.715304711,8.38372E-05,-0.000367357,,,,,,6.47803881,1.123330314,-10.34641739,-15.80526341,0.160035534,Elastic
4.713609755,0.513703755,6.71558E-05,-0.000278809,,,,,,6.479272915,1.55341928,-6.735658284,-7.997150909,-0.060166939,Elastic
4.718456213,0.310038143,4.50279E-05,-0.00017751,,,,,,6.486363898,1.006291736,-11.22287913,-17.96548705,0.239949378,Elastic
4.72098415,1.591147066,9.64876E-05,-0.000611976,,,,,,6.493332314,0.029609818,-18.62295072,-36.82437107,1.036785472,Failure
4.72098415,1.591147066,9.64876E-05,-0.000611976,,,,,,6.506189335,0.172231477,-16.78620414,-33.95448395,0.890405674,Failure
4.722402683,0.104307874,1.67971E-05,-6.29E-05,,,,,,6.512376264,0.743640282,-12.98636994,-22.88079269,0.421494838,Elastic
4.722402683,0.104307874,1.67971E-05,-6.29E-05,,,,,,6.526658456,1.973176919,-2.975298544,-0.482219012,-0.013958806,Elastic
4.72916011,1.783267235,8.4162E-05,-0.000634546,,,,,,6.528360376,1.316103105,-8.764312223,-12.27101521,0.031500701,Elastic
4.72916011,1.783267235,8.4162E-05,-0.000634546,,,,,,6.551214301,1.930323782,-3.363623442,-1.252067691,-0.031731665,Elastic
4.734211083,1.397634077,0.000101879,-0.000575147,,,,,,6.552215394,0.061154326,-18.19016538,-36.18316303,0.873232081,Failure
4.734211083,1.397634077,0.000101879,-0.000575147,,,,,,6.556202753,1.270788305,-9.124582617,-13.08932443,0.049624145,Elastic
4.742323422,1.218072504,0.000102308,-0.000532288,,,,,,6.556515078,1.379634401,-8.218684628,-11.11716142,0.00044466,Elastic
4.742323422,1.218072504,0.000102308,-0.000532288,,,,,,6.556826088,1.766598192,-4.820595872,-4.180308726,-0.070162434,Elastic
4.749293454,1.02056477,9.81354E-05,-0.000474861,,,,,,6.55861888,0.717440327,-13.11397503,-23.35481428,0.398944875,Elastic
4.749293454,1.02056477,9.81354E-05,-0.000474861,,,,,,6.55895854,1.545061166,-6.789370292,-8.141172373,-0.052798698,Elastic
4.75,2.125,4.08132E-05,-0.000645556,,,,,,6.565741242,0.359979874,-15.23463872,-30.21828393,0.643279126,Failure
4.75,2.125,4.08132E-05,-0.000645556,,,,,,6.568869541,1.159272477,-10.0102481,-15.12120849,0.105260894,Elastic
4.75,2.125,4.08132E-05,-0.000645556,,,,,,6.569298188,0.840746106,-12.31885372,-21.02065686,0.303165548,Elastic
4.754127029,2.05743899,5.18656E-05,-0.000644409,,,,,,6.571630323,0.453908479,-14.65920549,-28.4187062,0.570783224,Failure
4.754127029,2.05743899,5.18656E-05,-0.000644409,,,,,,6.576007951,0.499430926,-14.35476187,-27.52740144,0.539426616,Failure
4.758254058,1.989877979,6.13614E-05,-0.000641972,,,,,,6.579638282,1.007879705,-11.1483167,-17.90554486,0.189086952,Elastic
4.758254058,1.989877979,6.13614E-05,-0.000641972,,,,,,6.582971334,0.894461179,-11.94905018,-20.01408257,0.258526898,Elastic
4.758332155,1.66263579,9.14194E-05,-0.000615898,,,,,,6.586275317,0.573511384,-13.92740264,-26.09468313,0.471657895,Elastic
4.761254198,0.822366039,8.91007E-05,-0.000405751,,,,,,6.592216414,0.031544507,-18.54364812,-36.75620752,0.818503097,Failure
4.761254198,0.822366039,8.91007E-05,-0.000405751,,,,,,6.600703402,1.762620948,-4.860046054,-4.250864927,-0.063920578,Elastic
4.762381087,1.922316969,6.94929E-05,-0.000638294,,,,,,6.602835853,1.541083922,-6.814531704,-8.2096848,-0.048519095,Elastic
4.762381087,1.922316969,6.94929E-05,-0.000638294,,,,,,6.603301494,1.925602356,-3.423627325,-1.336273375,-0.030004542,Elastic
4.766508116,1.854755958,7.64304E-05,-0.000633384,,,,,,6.607942956,0.241642114,-15.92882198,-32.61750511,0.66417013,Failure
4.766508116,1.854755958,7.64304E-05,-0.000633384,,,,,,6.608602271,1.374912976,-8.238665819,-11.19612991,-0.000658096,Elastic
4.766508116,1.854755958,7.64304E-05,-0.000633384,,,,,,6.611097821,1.271230587,-9.095449288,-13.07228258,0.040310789,Elastic
4.766508116,1.854755958,7.64304E-05,-0.000633384,,,,,,6.615112157,1.159645048,-9.983005969,-15.1045294,0.091252855,Elastic
4.766508116,1.854755958,7.64304E-05,-0.000633384,,,,,,6.624193255,0.80964388,-12.48902439,-21.59047315,0.281005903,Elastic
4.768445784,0.615946972,7.4908E-05,-0.000322317,,,,,,6.625880899,1.008252275,-11.11919529,-17.88634721,0.165410872,Elastic
4.768445784,0.615946972,7.4908E-05,-0.000322317,,,,,,6.629629366,1.968455493,-3.061936721,-0.567160308,-0.013025692,Elastic
4.77419223,0.414346016,5.60426E-05,-0.000229054,,,,,,6.635342636,1.311823961,-8.753111995,-12.33293793,0.020861111,Elastic
4.77419223,0.414346016,5.60426E-05,-0.000229054,,,,,,6.637866401,0.894903461,-11.91226386,-19.98870991,0.220586083,Elastic
4.7781387,0.208615747,3.13271E-05,-0.000121703,,,,,,6.649246114,0.671148944,-13.32905389,-24.19030927,0.338775618,Elastic
4.7781387,0.208615747,3.13271E-05,-0.000121703,,,,,,6.664194274,0.843123076,-12.24542656,-20.9473314,0.229793589,Elastic
4.779531644,1.505563573,9.75889E-05,-0.000589251,,,,,,6.669269362,0.180119003,-16.58828011,-33.70902138,0.584844989,Failure
4.783333333,0,0,0,,,,,,6.683439063,1.706028907,-5.361993622,-5.259712597,-0.0538931,Elastic
4.792758578,1.312050584,0.000100594,-0.00054923,,,,,,6.685087617,1.534763277,-6.854578446,-8.31864964,-0.039324603,Elastic
4.792758578,1.312050584,0.000100594,-0.00054923,,,,,,6.694948405,1.125077924,-10.21434861,-15.72290115,0.082995698,Elastic
4.795680161,1.734124513,8.53792E-05,-0.000617705,,,,,,6.7029655,0.155176226,-16.87202994,-34.16586077,0.537803119,Failure
4.800299763,1.12351593,9.89956E-05,-0.000500762,,,,,,6.7029655,0.026572525,-18.51310733,-36.75158671,0.601200976,Failure
4.800299763,1.12351593,9.89956E-05,-0.000500762,,,,,,6.703273494,1.008039345,-11.08325418,-17.87291862,0.128671268,Elastic
4.812260507,0.925317199,9.2544E-05,-0.000438566,,,,,,6.708039422,1.808725064,-4.465491868,-3.426520843,-0.043710112,Elastic
4.8125,2.09375,4.38902E-05,-0.000631228,,,,,,6.711853561,1.412480222,-7.891788015,-10.51041452,-0.01297931,Elastic
4.816627029,2.02618899,5.42005E-05,-0.000630143,,,,,,6.713955767,1.196536344,-9.652455773,-14.41570285,0.051288145,Elastic
4.820754058,1.958627979,6.29899E-05,-0.000627822,,,,,,6.721698907,0.725327853,-12.96976005,-23.15263372,0.241326197,Elastic
4.821836673,0.7230083,8.13269E-05,-0.000363803,,,,,,6.725608179,0.367711996,-15.09394255,-29.99719051,0.402128072,Failure
4.824852206,1.613493068,9.14038E-05,-0.000598848,,,,,,6.730217548,1.844823774,-4.155184963,-2.781897655,-0.035857875,Elastic
4.824852206,1.613493068,9.14038E-05,-0.000598848,,,,,,6.730217548,1.973427475,-3.053561024,-0.477901092,-0.008132343,Elastic
4.824881087,1.891066969,7.05109E-05,-0.000624244,,,,,,6.733216919,0.92575269,-11.65414113,-19.39080594,0.147499616,Elastic
4.824881087,1.891066969,7.05109E-05,-0.000624244,,,,,,6.734379163,1.230731471,-9.375316506,-13.79158584,0.036199454,Elastic
4.829028259,0.516589233,6.49831E-05,-0.000275549,,,,,,6.734379163,1.359335172,-8.330067596,-11.46537311,0.000168821,Elastic
4.829028259,0.516589233,6.49831E-05,-0.000275549,,,,,,6.746142255,0.581243506,-13.79485055,-25.88249658,0.278692794,Elastic
4.833028166,1.805613237,7.83041E-05,-0.000617396,,,,,,6.755395045,0.753530125,-12.78173285,-22.60788806,0.201327859,Elastic
4.833028166,1.805613237,7.83041E-05,-0.000617396,,,,,,6.755395045,0.882133826,-11.94405907,-20.19829785,0.150984433,Elastic
4.833874717,0.312923621,4.37294E-05,-0.000176383,,,,,,6.766000962,0.124643373,-17.23952732,-34.76259256,0.429958427,Failure
4.833874717,0.312923621,4.37294E-05,-0.000176383,,,,,,6.778422812,0.463910202,-14.47542758,-28.12990419,0.296848988,Failure
4.838079139,1.419980079,9.7452E-05,-0.000565946,,,,,,6.782800439,0.509432649,-14.18013714,-27.25987771,0.262049826,Failure
4.83906935,0.104307874,1.61711E-05,-6.21E-05,,,,,,6.78746969,1.875356627,-3.900663157,-2.235840431,-0.024395579,Elastic
4.851306072,1.22646709,9.82915E-05,-0.000522561,,,,,,6.790308846,1.579959025,-6.452573777,-7.507524511,-0.031557904,Elastic
4.851306072,1.22646709,9.82915E-05,-0.000522561,,,,,,6.790748144,1.285476532,-8.921137794,-12.794601,0.014802912,Elastic
4.851306072,1.22646709,9.82915E-05,-0.000522561,,,,,,6.800169634,1.04420379,-10.78483711,-17.19201452,0.074662137,Elastic
4.851306072,1.22646709,9.82915E-05,-0.000522561,,,,,,6.807304121,0.803436948,-12.44671373,-21.66088398,0.142838657,Elastic
4.851306072,1.22646709,9.82915E-05,-0.000522561,,,,,,6.821472718,0.343194028,-15.16166622,-30.44027612,0.270195881,Failure
4.851306072,1.22646709,9.82915E-05,-0.000522561,,,,,,6.846278565,1.64565004,-5.884134761,-6.334418936,-0.02628065,Elastic
4.862200211,1.684981791,8.58888E-05,-0.000601546,,,,,,6.847036856,0.60903258,-13.6076947,-25.32577164,0.159988331,Elastic
4.863266816,1.028268359,9.44194E-05,-0.000467335,,,,,,6.847960252,1.470942223,-7.376555782,-9.455343199,-0.014635786,Elastic
4.875,2.0625,4.66675E-05,-0.000617713,,,,,,6.850062458,1.091923321,-10.41828483,-16.31143398,0.045655717,Elastic
4.875227561,0.830069628,8.59845E-05,-0.000400952,,,,,,6.855168856,0.31825125,-15.30710355,-30.93254584,0.222045877,Failure
4.875227561,0.830069628,8.59845E-05,-0.000400952,,,,,,6.855168856,0.026572525,-18.4733118,-36.72901106,0.275972068,Failure
4.879127029,1.99493899,5.60856E-05,-0.000616716,,,,,,6.858554868,0.97253244,-11.28781004,-18.50703141,0.067157017,Elastic
4.882419147,0.623650561,7.25761E-05,-0.000320153,,,,,,6.868456691,1.68174875,-5.572417389,-5.690442864,-0.023060816,Elastic
4.883254058,1.927377979,6.41846E-05,-0.000614512,,,,,,6.868456691,1.973427475,-3.083370792,-0.477912176,-0.00397485,Elastic
4.883254058,1.927377979,6.41846E-05,-0.000614512,,,,,,6.870485854,1.126118449,-10.1559853,-15.68466468,0.033413605,Elastic
4.883399701,1.527909574,9.25285E-05,-0.000578222,,,,,,6.870485854,1.417797174,-7.820487922,-10.40745987,-0.007565113,Elastic
4.889610734,0.417231495,5.41256E-05,-0.000226938,,,,,,6.880732994,0.637234852,-13.44074607,-24.78724021,0.120089563,Elastic
4.889610734,0.417231495,5.41256E-05,-0.000226938,,,,,,6.880732994,0.928913576,-11.58891945,-19.3124834,0.064185967,Elastic
4.889610734,0.417231495,5.41256E-05,-0.000226938,,,,,,6.883666186,0.250713255,-15.76074871,-32.32704329,0.18088425,Failure
4.889610734,0.417231495,5.41256E-05,-0.000226938,,,,,,6.883666186,0.124643373,-17.22332608,-34.75793004,0.20632337,Failure
4.889610734,0.417231495,5.41256E-05,-0.000226938,,,,,,6.894339473,1.749286745,-4.9909369,-4.48637835,-0.018054378,Elastic
4.889610734,0.417231495,5.41256E-05,-0.000226938,,,,,,6.894339473,1.875356627,-3.912033132,-2.235688412,-0.01221718,Elastic
4.891401137,1.841924247,7.26284E-05,-0.000609346,,,,,,6.895969373,1.204602398,-9.546126684,-14.25404736,0.0163713,Elastic
4.894805367,0.208615747,3.00689E-05,-0.000120017,,,,,,6.895969373,1.33067228,-8.537108867,-11.97350372,0.002024642,Elastic
4.896626634,1.334396586,9.62155E-05,-0.000541942,,,,,,6.904200261,0.71353151,-12.98530978,-23.34033739,0.084557019,Elastic
4.896626634,1.334396586,9.62155E-05,-0.000541942,,,,,,6.904200261,0.839601392,-12.18833752,-20.97306815,0.065166692,Elastic
4.899548217,1.756470515,7.94183E-05,-0.000602179,,,,,,6.930557441,0.466520804,-14.42115806,-28.07328758,0.089104939,Failure
4.899548217,1.756470515,7.94183E-05,-0.000602179,,,,,,6.935754166,0.520560952,-14.08362292,-27.01963437,0.075983499,Elastic
4.9,0,0,0,,,,,,6.946931762,1.520235878,-6.953278669,-8.571830169,-0.006703562,Elastic
4.914273126,1.131219519,9.47443E-05,-0.000492063,,,,,,6.949427312,1.011187011,-10.9984146,-17.78841084,0.021012939,Elastic
4.914273126,1.131219519,9.47443E-05,-0.000492063,,,,,,6.97055846,0.436910986,-14.65224319,-28.63431276,0.040572222,Failure
4.92623387,0.933020788,8.88584E-05,-0.000432615,,,,,,6.97055846,0.031544507,-18.36469246,-36.567618,0.058499773,Failure
4.928720262,1.63583907,8.57428E-05,-0.000586057,,,,,,6.973259635,1.968455493,-3.13365098,-0.567202802,-0.000959632,Elastic
4.928720262,1.63583907,8.57428E-05,-0.000586057,,,,,,6.973259635,1.563089014,-6.588595725,-7.806379377,-0.003973835,Elastic
4.935810035,0.730711889,7.8361E-05,-0.000360457,,,,,,6.973672127,1.051780385,-10.70140557,-17.04167823,0.009399894,Elastic
4.9375,2.03125,4.88657E-05,-0.000605054,,,,,,6.973672127,1.457146863,-7.485231668,-9.700511152,-0.002406852,Elastic
4.941627029,1.96368899,5.74037E-05,-0.000604306,,,,,,6.975198977,0.155176226,-16.80722202,-34.10609879,0.054927487,Failure
4.941627029,1.96368899,5.74037E-05,-0.000604306,,,,,,6.975198977,0.31825125,-15.29186579,-30.89079574,0.028533585,Failure
4.941947195,1.442326081,9.24405E-05,-0.000556955,,,,,,6.975755185,0.554040148,-13.89806343,-26.37324555,0.029362215,Elastic
4.941947195,1.442326081,9.24405E-05,-0.000556955,,,,,,6.975755185,0.959406626,-11.36615073,-18.74350818,0.011873489,Elastic
4.943001622,0.524292822,6.29172E-05,-0.000274687,,,,,,6.977474398,1.68174875,-5.572238381,-5.690173524,-0.003930181,Elastic
4.943001622,0.524292822,6.29172E-05,-0.000274687,,,,,,6.977474398,1.844823774,-4.174865377,-2.781480416,-0.003022148,Elastic
4.949774108,1.878235257,6.65934E-05,-0.00060084,,,,,,6.977821874,1.172222565,-9.791905132,-14.84052452,0.004369532,Elastic
4.950541384,0.312923621,4.18416E-05,-0.000173853,,,,,,6.977821874,1.335297589,-8.494213427,-11.88873236,0.000267352,Elastic
4.950541384,0.312923621,4.18416E-05,-0.000173853,,,,,,6.979576604,0.674126148,-13.21470124,-24.08348079,0.01968911,Elastic
4.955736017,0.104307874,1.54622E-05,-6.13E-05,,,,,,6.979576604,0.837201172,-12.19675083,-21.01451107,0.013869105,Elastic
4.957921188,1.792781525,7.39782E-05,-0.000595299,,,,,,,,,,,
4.961557035,1.239516889,9.37063E-05,-0.000514359,,,,,,,,,,,
4.961557035,1.239516889,9.37063E-05,-0.000514359,,,,,,,,,,,
4.966068268,1.707327793,7.9829E-05,-0.000587722,,,,,,,,,,,
4.966068268,1.707327793,7.9829E-05,-0.000587722,,,,,,,,,,,
4.977240179,1.035971948,9.01837E-05,-0.000460292,,,,,,,,,,,
4.977240179,1.035971948,9.01837E-05,-0.000460292,,,,,,,,,,,
4.987267757,1.550255576,8.69236E-05,-0.00056762,,,,,,,,,,,
4.987267757,1.550255576,8.69236E-05,-0.00056762,,,,,,,,,,,
4.989200923,0.837773217,8.24028E-05,-0.000396476,,,,,,,,,,,
4.989200923,0.837773217,8.24028E-05,-0.000396476,,,,,,,,,,,
4.99639251,0.63135415,6.98421E-05,-0.000318166,,,,,,,,,,,
4.99639251,0.63135415,6.98421E-05,-0.000318166,,,,,,,,,,,
5,2,4.9874E-05,-0.000593435,,,,,,,,,,,
5,2,4.9874E-05,-0.000593435,,,,,,,,,,,
5,2,4.9874E-05,-0.000593435,,,,,,,,,,,
5.006877597,1.347446384,9.11078E-05,-0.000532452,,,,,,,,,,,
5.007024012,0.422378827,5.20965E-05,-0.000225992,,,,,,,,,,,
5.007024012,0.422378827,5.20965E-05,-0.000225992,,,,,,,,,,,
5.00814708,1.914546268,6.01918E-05,-0.00059198,,,,,,,,,,,
5.00814708,1.914546268,6.01918E-05,-0.00059198,,,,,,,,,,,
5.011472033,0.208615747,2.86637E-05,-0.000118429,,,,,,,,,,,
5.011472033,0.208615747,2.86637E-05,-0.000118429,,,,,,,,,,,
5.016294159,1.829092536,6.82421E-05,-0.000588087,,,,,,,,,,,
5.016294159,1.829092536,6.82421E-05,-0.000588087,,,,,,,,,,,
5.016666667,0,0,0,,,,,,,,,,,
5.024441239,1.743638803,7.46061E-05,-0.000582062,,,,,,,,,,,
5.024441239,1.743638803,7.46061E-05,-0.000582062,,,,,,,,,,,
5.024524089,1.144269318,9.02207E-05,-0.000485675,,,,,,,,,,,
5.032588318,1.658185071,7.96077E-05,-0.000573981,,,,,,,,,,,
5.032588318,1.658185071,7.96077E-05,-0.000573981,,,,,,,,,,,
5.032588318,1.658185071,7.96077E-05,-0.000573981,,,,,,,,,,,
5.032588318,1.658185071,7.96077E-05,-0.000573981,,,,,,,,,,,
5.032588318,1.658185071,7.96077E-05,-0.000573981,,,,,,,,,,,
5.032588318,1.658185071,7.96077E-05,-0.000573981,,,,,,,,,,,
5.032588318,1.658185071,7.96077E-05,-0.000573981,,,,,,,,,,,
5.040207233,0.940724377,8.47098E-05,-0.000427115,,,,,,,,,,,
5.040207233,0.940724377,8.47098E-05,-0.000427115,,,,,,,,,,,
5.049783398,0.738415478,7.49831E-05,-0.000357395,,,,,,,,,,,
5.049783398,0.738415478,7.49831E-05,-0.000357395,,,,,,,,,,,
5.052198158,1.45537588,8.68643E-05,-0.00054629,,,,,,,,,,,
5.0604149,0.529440155,6.01982E-05,-0.000272735,,,,,,,,,,,
5.063577704,2,4.69467E-05,-0.000582972,,,,,,,,,,,
5.067954662,0.318070953,4.02931E-05,-0.000174042,,,,,,,,,,,
5.071724784,1.914546268,5.7342E-05,-0.000581983,,,,,,,,,,,
5.071807998,1.252566688,8.86421E-05,-0.000506793,,,,,,,,,,,
5.071807998,1.252566688,8.86421E-05,-0.000506793,,,,,,,,,,,
5.072402683,0.104307874,1.46807E-05,-6.05E-05,,,,,,,,,,,
5.072402683,0.104307874,1.46807E-05,-6.05E-05,,,,,,,,,,,
5.079871864,1.829092536,6.52787E-05,-0.000578807,,,,,,,,,,,
5.087491142,1.049021747,8.57844E-05,-0.000455597,,,,,,,,,,,
5.088018943,1.743638803,7.15502E-05,-0.000573424,,,,,,,,,,,
5.088018943,1.743638803,7.15502E-05,-0.000573424,,,,,,,,,,,
5.09751872,1.563305375,8.09618E-05,-0.000555939,,,,,,,,,,,
5.09751872,1.563305375,8.09618E-05,-0.000555939,,,,,,,,,,,
5.103174286,0.845476806,7.84121E-05,-0.000392408,,,,,,,,,,,
5.103174286,0.845476806,7.84121E-05,-0.000392408,,,,,,,,,,,
5.103174286,0.845476806,7.84121E-05,-0.000392408,,,,,,,,,,,
5.103174286,0.845476806,7.84121E-05,-0.000392408,,,,,,,,,,,
5.103174286,0.845476806,7.84121E-05,-0.000392408,,,,,,,,,,,
5.103174286,0.845476806,7.84121E-05,-0.000392408,,,,,,,,,,,
5.113805788,0.636501483,6.64633E-05,-0.000315257,,,,,,,,,,,
5.117128559,1.360496183,8.55681E-05,-0.000523818,,,,,,,,,,,
5.12443729,0.42752616,4.9783E-05,-0.000225202,,,,,,,,,,,
5.12443729,0.42752616,4.9783E-05,-0.000225202,,,,,,,,,,,
5.127155409,2,4.50125E-05,-0.000574181,,,,,,,,,,,
5.128885312,0.21376308,2.77204E-05,-0.000119654,,,,,,,,,,,
5.133333333,0,0,0,,,,,,,,,,,
5.133333333,0,0,0,,,,,,,,,,,
5.133333333,0,0,0,,,,,,,,,,,
5.134775051,1.157319117,8.52695E-05,-0.000479877,,,,,,,,,,,
5.135302489,1.914546268,5.47038E-05,-0.000573293,,,,,,,,,,,
5.136080322,1.663307632,7.41757E-05,-0.00056164,,,,,,,,,,,
5.136080322,1.663307632,7.41757E-05,-0.00056164,,,,,,,,,,,
5.143449568,1.829092536,6.23335E-05,-0.000570492,,,,,,,,,,,
5.143449568,1.829092536,6.23335E-05,-0.000570492,,,,,,,,,,,
5.150458195,0.953774176,8.0497E-05,-0.000423993,,,,,,,,,,,
5.150458195,0.953774176,8.0497E-05,-0.000423993,,,,,,,,,,,
5.162449121,1.468425678,8.0934E-05,-0.000536752,,,,,,,,,,,
5.162449121,1.468425678,8.0934E-05,-0.000536752,,,,,,,,,,,
5.167196676,0.743562811,7.09813E-05,-0.000353599,,,,,,,,,,,
5.167196676,0.743562811,7.09813E-05,-0.000353599,,,,,,,,,,,
5.177828178,0.534587487,5.71789E-05,-0.000271033,,,,,,,,,,,
5.182058961,1.265616486,8.32017E-05,-0.000500015,,,,,,,,,,,
5.182058961,1.265616486,8.32017E-05,-0.000500015,,,,,,,,,,,
5.18536794,0.323218286,3.85152E-05,-0.000174328,,,,,,,,,,,
5.189815962,0.109455206,1.44798E-05,-6.27E-05,,,,,,,,,,,
5.189815962,0.109455206,1.44798E-05,-6.27E-05,,,,,,,,,,,
5.190733113,2,4.36357E-05,-0.000566611,,,,,,,,,,,
5.191510947,1.748761364,6.61686E-05,-0.000561364,,,,,,,,,,,
5.197742105,1.062071546,8.10051E-05,-0.000451428,,,,,,,,,,,
5.197742105,1.062071546,8.10051E-05,-0.000451428,,,,,,,,,,,
5.198880193,1.914546268,5.22995E-05,-0.000565767,,,,,,,,,,,
5.198880193,1.914546268,5.22995E-05,-0.000565767,,,,,,,,,,,
5.201010724,1.568427935,7.54508E-05,-0.000545533,,,,,,,,,,,
5.222203156,0.858555711,7.40778E-05,-0.000390299,,,,,,,,,,,
5.222203156,0.858555711,7.40778E-05,-0.000390299,,,,,,,,,,,
5.227379522,1.373545982,7.97298E-05,-0.000516204,,,,,,,,,,,
5.227379522,1.373545982,7.97298E-05,-0.000516204,,,,,,,,,,,
5.231219066,0.641648815,6.27826E-05,-0.000312708,,,,,,,,,,,
5.231219066,0.641648815,6.27826E-05,-0.000312708,,,,,,,,,,,
5.239572327,1.668430192,6.87025E-05,-0.000551069,,,,,,,,,,,
5.239572327,1.668430192,6.87025E-05,-0.000551069,,,,,,,,,,,
5.241850569,0.432673492,4.72218E-05,-0.000224598,,,,,,,,,,,
5.241850569,0.432673492,4.72218E-05,-0.000224598,,,,,,,,,,,
5.245026014,1.170368915,7.99881E-05,-0.000474779,,,,,,,,,,,
5.245026014,1.170368915,7.99881E-05,-0.000474779,,,,,,,,,,,
5.24629859,0.218910412,2.65982E-05,-0.000120918,,,,,,,,,,,
5.24629859,0.218910412,2.65982E-05,-0.000120918,,,,,,,,,,,
5.246941572,1.834215096,5.74117E-05,-0.000559159,,,,,,,,,,,
5.25,0,0,0,,,,,,,,,,,
5.254310818,2,4.24798E-05,-0.000560035,,,,,,,,,,,
5.254310818,2,4.24798E-05,-0.000560035,,,,,,,,,,,
5.254310818,2,4.24798E-05,-0.000560035,,,,,,,,,,,
5.265941125,1.473548239,7.54077E-05,-0.000528017,,,,,,,,,,,
5.269487066,0.966853081,7.55444E-05,-0.000420844,,,,,,,,,,,
5.286225547,0.756641716,6.7008E-05,-0.000353,,,,,,,,,,,
5.292309924,1.278666285,7.75038E-05,-0.000494134,,,,,,,,,,,
5.292309924,1.278666285,7.75038E-05,-0.000494134,,,,,,,,,,,
5.292309924,1.278666285,7.75038E-05,-0.000494134,,,,,,,,,,,
5.292309924,1.278666285,7.75038E-05,-0.000494134,,,,,,,,,,,
5.292309924,1.278666285,7.75038E-05,-0.000494134,,,,,,,,,,,
5.292309924,1.278666285,7.75038E-05,-0.000494134,,,,,,,,,,,
5.295002951,1.753883925,6.10034E-05,-0.000551345,,,,,,,,,,,
5.295241457,0.53973482,5.39075E-05,-0.000269615,,,,,,,,,,,
5.295241457,0.53973482,5.39075E-05,-0.000269615,,,,,,,,,,,
5.302372197,1.919668828,4.84805E-05,-0.000555571,,,,,,,,,,,
5.302372197,1.919668828,4.84805E-05,-0.000555571,,,,,,,,,,,
5.302781219,0.328365618,3.65367E-05,-0.000174735,,,,,,,,,,,
5.302781219,0.328365618,3.65367E-05,-0.000174735,,,,,,,,,,,
5.304502728,1.573550496,6.99174E-05,-0.000536631,,,,,,,,,,,
5.306482628,0.109455206,1.35486E-05,-6.20E-05,,,,,,,,,,,
5.316770975,1.075150451,7.5506E-05,-0.000447357,,,,,,,,,,,
5.324727344,2,4.1217E-05,-0.000553703,,,,,,,,,,,
5.330871526,1.378668542,7.4239E-05,-0.000508937,,,,,,,,,,,
5.330871526,1.378668542,7.4239E-05,-0.000508937,,,,,,,,,,,
5.341232027,0.871634617,6.94069E-05,-0.000388662,,,,,,,,,,,
5.341232027,0.871634617,6.94069E-05,-0.000388662,,,,,,,,,,,
5.343064331,1.673552753,6.33781E-05,-0.00054224,,,,,,,,,,,
5.343064331,1.673552753,6.33781E-05,-0.00054224,,,,,,,,,,,
5.350247937,0.654727721,5.92463E-05,-0.000313499,,,,,,,,,,,
5.350433576,1.839337657,5.29614E-05,-0.000549993,,,,,,,,,,,
5.350433576,1.839337657,5.29614E-05,-0.000549993,,,,,,,,,,,
5.359263847,0.437820825,4.44527E-05,-0.000224204,,,,,,,,,,,
5.359263847,0.437820825,4.44527E-05,-0.000224204,,,,,,,,,,,
5.359263847,0.437820825,4.44527E-05,-0.000224204,,,,,,,,,,,
5.359263847,0.437820825,4.44527E-05,-0.000224204,,,,,,,,,,,
5.359263847,0.437820825,4.44527E-05,-0.000224204,,,,,,,,,,,
5.359263847,0.437820825,4.44527E-05,-0.000224204,,,,,,,,,,,
5.362965257,0.218910412,2.481E-05,-0.000119617,,,,,,,,,,,
5.364054885,1.183447821,7.40346E-05,-0.000469927,,,,,,,,,,,
5.364054885,1.183447821,7.40346E-05,-0.000469927,,,,,,,,,,,
5.366666667,0,0,0,,,,,,,,,,,
5.369433129,1.478670799,6.98665E-05,-0.000520568,,,,,,,,,,,
5.369433129,1.478670799,6.98665E-05,-0.000520568,,,,,,,,,,,
5.372788723,1.919668828,4.64463E-05,-0.000549761,,,,,,,,,,,
5.388515936,0.979931986,7.0304E-05,-0.000418321,,,,,,,,,,,
5.395143869,2,4.00085E-05,-0.000548178,,,,,,,,,,,
5.398494956,1.759006485,5.61704E-05,-0.00054316,,,,,,,,,,,
5.398494956,1.759006485,5.61704E-05,-0.00054316,,,,,,,,,,,
5.404467861,1.300360187,7.149E-05,-0.00049066,,,,,,,,,,,
5.404467861,1.300360187,7.149E-05,-0.00049066,,,,,,,,,,,
5.405254417,0.769720621,6.27323E-05,-0.000352777,,,,,,,,,,,
5.407994732,1.578673056,6.44964E-05,-0.000529184,,,,,,,,,,,
5.407994732,1.578673056,6.44964E-05,-0.000529184,,,,,,,,,,,
5.414270327,0.552813725,5.08881E-05,-0.000271687,,,,,,,,,,,
5.414270327,0.552813725,5.08881E-05,-0.000271687,,,,,,,,,,,
5.419447885,0.328365618,3.39644E-05,-0.00017285,,,,,,,,,,,
5.419447885,0.328365618,3.39644E-05,-0.00017285,,,,,,,,,,,
5.420850102,1.839337657,5.04106E-05,-0.00054468,,,,,,,,,,,
5.423149295,0.109455206,1.25808E-05,-6.14E-05,,,,,,,,,,,
5.435799846,1.088229356,6.97884E-05,-0.000444075,,,,,,,,,,,
5.435799846,1.088229356,6.97884E-05,-0.000444075,,,,,,,,,,,
5.443029464,1.400362444,6.79656E-05,-0.000504747,,,,,,,,,,,
5.443205248,1.919668828,4.452E-05,-0.000544712,,,,,,,,,,,
5.446556335,1.678675314,5.8305E-05,-0.000534984,,,,,,,,,,,
5.446556335,1.678675314,5.8305E-05,-0.000534984,,,,,,,,,,,
5.446556335,1.678675314,5.8305E-05,-0.000534984,,,,,,,,,,,
5.446556335,1.678675314,5.8305E-05,-0.000534984,,,,,,,,,,,
5.446556335,1.678675314,5.8305E-05,-0.000534984,,,,,,,,,,,
5.446556335,1.678675314,5.8305E-05,-0.000534984,,,,,,,,,,,
5.460260898,0.884713522,6.44842E-05,-0.000387544,,,,,,,,,,,
5.460260898,0.884713522,6.44842E-05,-0.000387544,,,,,,,,,,,
5.465560395,2,3.88055E-05,-0.000543361,,,,,,,,,,,
5.468911481,1.759006485,5.32716E-05,-0.000538318,,,,,,,,,,,
5.468911481,1.759006485,5.32716E-05,-0.000538318,,,,,,,,,,,
5.469276808,0.667806626,5.54361E-05,-0.000314575,,,,,,,,,,,
5.469276808,0.667806626,5.54361E-05,-0.000314575,,,,,,,,,,,
5.476212822,1.205141723,6.82992E-05,-0.000468175,,,,,,,,,,,
5.479631924,0.218910412,2.2964E-05,-0.000118446,,,,,,,,,,,
5.479631924,0.218910412,2.2964E-05,-0.000118446,,,,,,,,,,,
5.481591066,1.500364702,6.34953E-05,-0.000515837,,,,,,,,,,,
5.481992908,0.444940791,4.15047E-05,-0.000224791,,,,,,,,,,,
5.481992908,0.444940791,4.15047E-05,-0.000224791,,,,,,,,,,,
5.483333333,0,0,0,,,,,,,,,,,
5.491266628,1.839337657,4.79821E-05,-0.000540061,,,,,,,,,,,
5.491266628,1.839337657,4.79821E-05,-0.000540061,,,,,,,,,,,
5.507544807,0.993010892,6.48735E-05,-0.000416457,,,,,,,,,,,
5.507544807,0.993010892,6.48735E-05,-0.000416457,,,,,,,,,,,
5.513621774,1.919668828,4.26616E-05,-0.000540317,,,,,,,,,,,
5.513621774,1.919668828,4.26616E-05,-0.000540317,,,,,,,,,,,
5.516625798,1.322054089,6.54222E-05,-0.000488023,,,,,,,,,,,
5.516625798,1.322054089,6.54222E-05,-0.000488023,,,,,,,,,,,
5.520152669,1.600366959,5.82392E-05,-0.000524096,,,,,,,,,,,
5.520152669,1.600366959,5.82392E-05,-0.000524096,,,,,,,,,,,
5.524283288,0.782799527,5.82275E-05,-0.000352964,,,,,,,,,,,
5.524283288,0.782799527,5.82275E-05,-0.000352964,,,,,,,,,,,
5.535976921,2,3.75766E-05,-0.000539157,,,,,,,,,,,
5.535976921,2,3.75766E-05,-0.000539157,,,,,,,,,,,
5.535976921,2,3.75766E-05,-0.000539157,,,,,,,,,,,
5.536999388,0.559933691,4.71476E-05,-0.000271504,,,,,,,,,,,
5.539815962,0.109455206,1.15893E-05,-6.09E-05,,,,,,,,,,,
5.539815962,0.109455206,1.15893E-05,-6.09E-05,,,,,,,,,,,
5.540719205,1.701470135,5.31298E-05,-0.000530769,,,,,,,,,,,
5.540719205,1.701470135,5.31298E-05,-0.000530769,,,,,,,,,,,
5.542176946,0.335485585,3.1748E-05,-0.000174423,,,,,,,,,,,
5.547957783,1.109923258,6.43665E-05,-0.000443899,,,,,,,,,,,
5.555187401,1.422056347,6.17647E-05,-0.000501544,,,,,,,,,,,
5.563074351,1.781801307,4.8475E-05,-0.000533869,,,,,,,,,,,
5.579289768,0.897792427,5.9392E-05,-0.000386966,,,,,,,,,,,
5.579289768,0.897792427,5.9392E-05,-0.000386966,,,,,,,,,,,
5.579289768,0.897792427,5.9392E-05,-0.000386966,,,,,,,,,,,
5.579289768,0.897792427,5.9392E-05,-0.000386966,,,,,,,,,,,
5.579289768,0.897792427,5.9392E-05,-0.000386966,,,,,,,,,,,
5.579289768,0.897792427,5.9392E-05,-0.000386966,,,,,,,,,,,
5.585429498,1.862132478,4.37321E-05,-0.000535422,,,,,,,,,,,
5.588370759,1.226835625,6.25002E-05,-0.000467101,,,,,,,,,,,
5.592005869,0.674926592,5.10022E-05,-0.000313719,,,,,,,,,,,
5.593749003,1.522058604,5.73395E-05,-0.000512218,,,,,,,,,,,
5.593749003,1.522058604,5.73395E-05,-0.000512218,,,,,,,,,,,
5.6,0,0,0,,,,,,,,,,,
5.6,0,0,0,,,,,,,,,,,
5.6,0,0,0,,,,,,,,,,,
5.602360985,0.226030378,2.15926E-05,-0.000120915,,,,,,,,,,,
5.604721969,0.452060757,3.83975E-05,-0.000225608,,,,,,,,,,,
5.604721969,0.452060757,3.83975E-05,-0.000225608,,,,,,,,,,,
5.607784644,1.94246365,3.91046E-05,-0.000535492,,,,,,,,,,,
5.607784644,1.94246365,3.91046E-05,-0.000535492,,,,,,,,,,,
5.613967894,2,3.61669E-05,-0.000535118,,,,,,,,,,,
5.614315539,1.62316178,5.30934E-05,-0.000521143,,,,,,,,,,,
5.619702744,1.014704794,5.98011E-05,-0.000417731,,,,,,,,,,,
5.619702744,1.014704794,5.98011E-05,-0.000417731,,,,,,,,,,,
5.628783735,1.343747992,5.94114E-05,-0.000486208,,,,,,,,,,,
5.628783735,1.343747992,5.94114E-05,-0.000486208,,,,,,,,,,,
5.634882075,1.724264957,4.83153E-05,-0.000527378,,,,,,,,,,,
5.634882075,1.724264957,4.83153E-05,-0.000527378,,,,,,,,,,,
5.647012349,0.789919493,5.32081E-05,-0.000351545,,,,,,,,,,,
5.647012349,0.789919493,5.32081E-05,-0.000351545,,,,,,,,,,,
5.657237221,1.804596128,4.40902E-05,-0.000530237,,,,,,,,,,,
5.65972845,0.567053658,4.32745E-05,-0.000271652,,,,,,,,,,,
5.66011572,1.131617161,5.88701E-05,-0.000444261,,,,,,,,,,,
5.66011572,1.131617161,5.88701E-05,-0.000444261,,,,,,,,,,,
5.662545023,0.116575172,1.11825E-05,-6.42E-05,,,,,,,,,,,
5.662545023,0.116575172,1.11825E-05,-6.42E-05,,,,,,,,,,,
5.664906008,0.342605551,2.93897E-05,-0.000176136,,,,,,,,,,,
5.667345338,1.443750249,5.5737E-05,-0.000499262,,,,,,,,,,,
5.667345338,1.443750249,5.5737E-05,-0.000499262,,,,,,,,,,,
5.679592367,1.8849273,3.98985E-05,-0.000531561,,,,,,,,,,,
5.679592367,1.8849273,3.98985E-05,-0.000531561,,,,,,,,,,,
5.685775618,1.94246365,3.72514E-05,-0.000531991,,,,,,,,,,,
5.687911873,1.544853425,5.22629E-05,-0.000510433,,,,,,,,,,,
5.691958868,2,3.4693E-05,-0.000531645,,,,,,,,,,,
5.700528696,1.248529527,5.67291E-05,-0.000466685,,,,,,,,,,,
5.700528696,1.248529527,5.67291E-05,-0.000466685,,,,,,,,,,,
5.708478409,1.645956602,4.82379E-05,-0.000518869,,,,,,,,,,,
5.71473493,0.682046558,4.64741E-05,-0.000313296,,,,,,,,,,,
5.71473493,0.682046558,4.64741E-05,-0.000313296,,,,,,,,,,,
5.716666667,0,0,0,,,,,,,,,,,
5.716937112,0.921591711,5.35686E-05,-0.000389422,,,,,,,,,,,
5.716937112,0.921591711,5.35686E-05,-0.000389422,,,,,,,,,,,
5.725090046,0.233150345,2.00883E-05,-0.000123444,,,,,,,,,,,
5.725090046,0.233150345,2.00883E-05,-0.000123444,,,,,,,,,,,
5.727451031,0.459180723,3.51735E-05,-0.000226657,,,,,,,,,,,
5.727451031,0.459180723,3.51735E-05,-0.000226657,,,,,,,,,,,
5.729044944,1.747059778,4.38485E-05,-0.000524679,,,,,,,,,,,
5.729044944,1.747059778,4.38485E-05,-0.000524679,,,,,,,,,,,
5.740941672,1.365441894,5.35384E-05,-0.000485153,,,,,,,,,,,
5.740941672,1.365441894,5.35384E-05,-0.000485153,,,,,,,,,,,
5.740941672,1.365441894,5.35384E-05,-0.000485153,,,,,,,,,,,
5.740941672,1.365441894,5.35384E-05,-0.000485153,,,,,,,,,,,
5.740941672,1.365441894,5.35384E-05,-0.000485153,,,,,,,,,,,
5.740941672,1.365441894,5.35384E-05,-0.000485153,,,,,,,,,,,
5.751400091,1.82739095,4.00659E-05,-0.00052727,,,,,,,,,,,
5.751400091,1.82739095,4.00659E-05,-0.00052727,,,,,,,,,,,
5.757350088,1.038504077,5.34353E-05,-0.000419166,,,,,,,,,,,
5.757583341,1.8849273,3.76981E-05,-0.000528528,,,,,,,,,,,
5.761508208,1.46654507,5.07601E-05,-0.000498563,,,,,,,,,,,
5.761508208,1.46654507,5.07601E-05,-0.000498563,,,,,,,,,,,
5.763766592,1.94246365,3.53727E-05,-0.000528991,,,,,,,,,,,
5.769949842,2,3.31447E-05,-0.000528664,,,,,,,,,,,
5.77921169,0.116575172,1.01168E-05,-6.37E-05,,,,,,,,,,,
5.782074743,1.567648247,4.74203E-05,-0.000509204,,,,,,,,,,,
5.782074743,1.567648247,4.74203E-05,-0.000509204,,,,,,,,,,,
5.782457511,0.574173624,3.93169E-05,-0.000272124,,,,,,,,,,,
5.782457511,0.574173624,3.93169E-05,-0.000272124,,,,,,,,,,,
5.784659693,0.813718776,4.79645E-05,-0.000355563,,,,,,,,,,,
5.787635069,0.349725517,2.69213E-05,-0.000177995,,,,,,,,,,,
5.787635069,0.349725517,2.69213E-05,-0.000177995,,,,,,,,,,,
5.797763064,1.155416444,5.21297E-05,-0.000444812,,,,,,,,,,,
5.802641279,1.668751423,4.36698E-05,-0.00051717,,,,,,,,,,,
5.802641279,1.668751423,4.36698E-05,-0.00051717,,,,,,,,,,,
5.823207814,1.7698546,3.96964E-05,-0.000522545,,,,,,,,,,,
5.823207814,1.7698546,3.96964E-05,-0.000522545,,,,,,,,,,,
5.823207814,1.7698546,3.96964E-05,-0.000522545,,,,,,,,,,,
5.823207814,1.7698546,3.96964E-05,-0.000522545,,,,,,,,,,,
5.823207814,1.7698546,3.96964E-05,-0.000522545,,,,,,,,,,,
5.823207814,1.7698546,3.96964E-05,-0.000522545,,,,,,,,,,,
5.829391065,1.82739095,3.75935E-05,-0.000524647,,,,,,,,,,,
5.829391065,1.82739095,3.75935E-05,-0.000524647,,,,,,,,,,,
5.833333333,0,0,0,,,,,,,,,,,
5.835574315,1.8849273,3.54988E-05,-0.000525937,,,,,,,,,,,
5.835574315,1.8849273,3.54988E-05,-0.000525937,,,,,,,,,,,
5.83817604,1.27232881,4.98026E-05,-0.000466494,,,,,,,,,,,
5.83817604,1.27232881,4.98026E-05,-0.000466494,,,,,,,,,,,
5.841756713,0.233150345,1.80903E-05,-0.00012261,,,,,,,,,,,
5.841757566,1.94246365,3.34573E-05,-0.000526424,,,,,,,,,,,
5.841757566,1.94246365,3.34573E-05,-0.000526424,,,,,,,,,,,
5.847940816,2,3.15166E-05,-0.000526109,,,,,,,,,,,
5.847940816,2,3.15166E-05,-0.000526109,,,,,,,,,,,
5.849302679,1.417790802,4.7565E-05,-0.000489264,,,,,,,,,,,
5.849302679,1.417790802,4.7565E-05,-0.000489264,,,,,,,,,,,
5.850180092,0.466300689,3.18699E-05,-0.000227936,,,,,,,,,,,
5.850180092,0.466300689,3.18699E-05,-0.000227936,,,,,,,,,,,
5.850180092,0.466300689,3.18699E-05,-0.000227936,,,,,,,,,,,
5.850180092,0.466300689,3.18699E-05,-0.000227936,,,,,,,,,,,
5.850180092,0.466300689,3.18699E-05,-0.000227936,,,,,,,,,,,
5.850180092,0.466300689,3.18699E-05,-0.000227936,,,,,,,,,,,
5.852382274,0.705845842,4.18803E-05,-0.000318773,,,,,,,,,,,
5.854584457,0.945390994,4.76385E-05,-0.000392399,,,,,,,,,,,
5.854584457,0.945390994,4.76385E-05,-0.000392399,,,,,,,,,,,
5.869869214,1.518893978,4.47283E-05,-0.000501318,,,,,,,,,,,
5.89043575,1.619997155,4.14984E-05,-0.000510681,,,,,,,,,,,
5.894997433,1.062303361,4.70706E-05,-0.000421245,,,,,,,,,,,
5.895878356,0.116575172,9.05921E-06,-6.33E-05,,,,,,,,,,,
5.904301735,0.349725517,2.41163E-05,-0.000176854,,,,,,,,,,,
5.904301735,0.349725517,2.41163E-05,-0.000176854,,,,,,,,,,,
5.911002285,1.721100331,3.80357E-05,-0.000517427,,,,,,,,,,,
5.911002285,1.721100331,3.80357E-05,-0.000517427,,,,,,,,,,,
5.915771242,1.82739095,3.48762E-05,-0.000522195,,,,,,,,,,,
5.915771242,1.82739095,3.48762E-05,-0.000522195,,,,,,,,,,,
5.920104855,0.597972907,3.54452E-05,-0.000278972,,,,,,,,,,,
5.920104855,0.597972907,3.54452E-05,-0.000278972,,,,,,,,,,,
5.921954493,1.8849273,3.30497E-05,-0.000523513,,,,,,,,,,,
5.922307038,0.837518059,4.25807E-05,-0.000359947,,,,,,,,,,,
5.928137743,1.94246365,3.12837E-05,-0.000524018,,,,,,,,,,,
5.934320994,2,2.96192E-05,-0.000523711,,,,,,,,,,,
5.935410409,1.179215727,4.55039E-05,-0.000446114,,,,,,,,,,,
5.935410409,1.179215727,4.55039E-05,-0.000446114,,,,,,,,,,,
5.946537047,1.324677719,4.42192E-05,-0.000472592,,,,,,,,,,,
5.95,0,0,0,,,,,,,,,,,
5.957663685,1.47013971,4.17877E-05,-0.000493269,,,,,,,,,,,
5.957663685,1.47013971,4.17877E-05,-0.000493269,,,,,,,,,,,
5.958423379,0.233150345,1.61127E-05,-0.000121895,,,,,,,,,,,
5.958423379,0.233150345,1.61127E-05,-0.000121895,,,,,,,,,,,
5.978230221,1.571242887,3.90167E-05,-0.000504019,,,,,,,,,,,
5.97912483,0.467059013,2.80475E-05,-0.000226747,,,,,,,,,,,
5.97912483,0.467059013,2.80475E-05,-0.000226747,,,,,,,,,,,
5.990029619,0.729645125,3.71104E-05,-0.000324485,,,,,,,,,,,
5.990029619,0.729645125,3.71104E-05,-0.000324485,,,,,,,,,,,
5.992231801,0.969190277,4.16862E-05,-0.000395856,,,,,,,,,,,
5.992231801,0.969190277,4.16862E-05,-0.000395856,,,,,,,,,,,
5.998796757,1.672346063,3.60053E-05,-0.000512131,,,,,,,,,,,
5.998796757,1.672346063,3.60053E-05,-0.000512131,,,,,,,,,,,
6.003565714,1.778636681,3.33153E-05,-0.000518227,,,,,,,,,,,
6.008334671,1.8849273,3.05764E-05,-0.00052149,,,,,,,,,,,
6.008334671,1.8849273,3.05764E-05,-0.00052149,,,,,,,,,,,
6.012545023,0.116575172,8.0165E-06,-6.30E-05,,,,,,,,,,,
6.012545023,0.116575172,8.0165E-06,-6.30E-05,,,,,,,,,,,
6.014517921,1.94246365,2.90502E-05,-0.000522008,,,,,,,,,,,
6.020701171,2,2.76232E-05,-0.000521704,,,,,,,,,,,
6.032644777,1.086102644,4.07819E-05,-0.000423895,,,,,,,,,,,
6.032644777,1.086102644,4.07819E-05,-0.000423895,,,,,,,,,,,
6.033246473,0.350483841,2.1095E-05,-0.000176137,,,,,,,,,,,
6.043771415,1.231564635,4.03132E-05,-0.000454096,,,,,,,,,,,
6.049049593,0.598731231,3.09165E-05,-0.000277569,,,,,,,,,,,
6.054898054,1.377026627,3.8746E-05,-0.00047845,,,,,,,,,,,
6.059954382,0.861317343,3.71275E-05,-0.000364672,,,,,,,,,,,
6.059954382,0.861317343,3.71275E-05,-0.000364672,,,,,,,,,,,
6.066024692,1.522488618,3.62749E-05,-0.000497116,,,,,,,,,,,
6.066024692,1.522488618,3.62749E-05,-0.000497116,,,,,,,,,,,
6.066666667,0,0,0,,,,,,,,,,,
6.066666667,0,0,0,,,,,,,,,,,
6.066666667,0,0,0,,,,,,,,,,,
6.086591228,1.623591795,3.36643E-05,-0.000506587,,,,,,,,,,,
6.086591228,1.623591795,3.36643E-05,-0.000506587,,,,,,,,,,,
6.087368117,0.233908668,1.40035E-05,-0.000121599,,,,,,,,,,,
6.091360185,1.729882413,3.13933E-05,-0.000514024,,,,,,,,,,,
6.096129142,1.836173032,2.90337E-05,-0.000518598,,,,,,,,,,,
6.100898099,1.94246365,2.67544E-05,-0.000520336,,,,,,,,,,,
6.100898099,1.94246365,2.67544E-05,-0.000520336,,,,,,,,,,,
6.107081349,2,2.55312E-05,-0.000520033,,,,,,,,,,,
6.108069568,0.467817336,2.42822E-05,-0.00022583,,,,,,,,,,,
6.108069568,0.467817336,2.42822E-05,-0.00022583,,,,,,,,,,,
6.118974356,0.730403448,3.2046E-05,-0.000322972,,,,,,,,,,,
6.129879145,0.99298956,3.57707E-05,-0.000399731,,,,,,,,,,,
6.129879145,0.99298956,3.57707E-05,-0.000399731,,,,,,,,,,,
6.129879145,0.99298956,3.57707E-05,-0.000399731,,,,,,,,,,,
6.129879145,0.99298956,3.57707E-05,-0.000399731,,,,,,,,,,,
6.129879145,0.99298956,3.57707E-05,-0.000399731,,,,,,,,,,,
6.129879145,0.99298956,3.57707E-05,-0.000399731,,,,,,,,,,,
6.129879145,0.99298956,3.57707E-05,-0.000399731,,,,,,,,,,,
6.141005784,1.138451552,3.5983E-05,-0.000433675,,,,,,,,,,,
6.141005784,1.138451552,3.5983E-05,-0.000433675,,,,,,,,,,,
6.141489761,0.117333496,6.93013E-06,-6.31E-05,,,,,,,,,,,
6.141489761,0.117333496,6.93013E-06,-6.31E-05,,,,,,,,,,,
6.152132422,1.283913543,3.51569E-05,-0.000461727,,,,,,,,,,,
6.152132422,1.283913543,3.51569E-05,-0.000461727,,,,,,,,,,,
6.162191211,0.351242164,1.8122E-05,-0.000175609,,,,,,,,,,,
6.16325906,1.429375535,3.3448E-05,-0.000484033,,,,,,,,,,,
6.16325906,1.429375535,3.3448E-05,-0.000484033,,,,,,,,,,,
6.174385699,1.574837526,3.10626E-05,-0.000500736,,,,,,,,,,,
6.174385699,1.574837526,3.10626E-05,-0.000500736,,,,,,,,,,,
6.174385699,1.574837526,3.10626E-05,-0.000500736,,,,,,,,,,,
6.174385699,1.574837526,3.10626E-05,-0.000500736,,,,,,,,,,,
6.174385699,1.574837526,3.10626E-05,-0.000500736,,,,,,,,,,,
6.174385699,1.574837526,3.10626E-05,-0.000500736,,,,,,,,,,,
6.177994331,0.599489554,2.64726E-05,-0.000276496,,,,,,,,,,,
6.179154656,1.681128145,2.91653E-05,-0.000509521,,,,,,,,,,,
6.179154656,1.681128145,2.91653E-05,-0.000509521,,,,,,,,,,,
6.183333333,0,0,0,,,,,,,,,,,
6.183923613,1.787418763,2.71517E-05,-0.000515422,,,,,,,,,,,
6.183923613,1.787418763,2.71517E-05,-0.000515422,,,,,,,,,,,
6.18869257,1.893709382,2.51609E-05,-0.000518462,,,,,,,,,,,
6.18869257,1.893709382,2.51609E-05,-0.000518462,,,,,,,,,,,
6.18889912,0.862075666,3.16988E-05,-0.000363144,,,,,,,,,,,
6.18889912,0.862075666,3.16988E-05,-0.000363144,,,,,,,,,,,
6.193461527,2,2.33482E-05,-0.000518648,,,,,,,,,,,
6.193461527,2,2.33482E-05,-0.000518648,,,,,,,,,,,
6.193461527,2,2.33482E-05,-0.000518648,,,,,,,,,,,
6.216312855,0.234666992,1.19286E-05,-0.000121419,,,,,,,,,,,
6.216312855,0.234666992,1.19286E-05,-0.000121419,,,,,,,,,,,
6.237014305,0.46857566,2.05878E-05,-0.000225152,,,,,,,,,,,
6.237014305,0.46857566,2.05878E-05,-0.000225152,,,,,,,,,,,
6.243081082,1.074929973,3.12781E-05,-0.00041815,,,,,,,,,,,
6.243081082,1.074929973,3.12781E-05,-0.00041815,,,,,,,,,,,
6.247919094,0.731161772,2.70925E-05,-0.000321832,,,,,,,,,,,
6.247919094,0.731161772,2.70925E-05,-0.000321832,,,,,,,,,,,
6.25133552,0.958884633,3.01878E-05,-0.000389327,,,,,,,,,,,
6.25133552,0.958884633,3.01878E-05,-0.000389327,,,,,,,,,,,
6.25420772,1.220391964,3.08859E-05,-0.00044873,,,,,,,,,,,
6.258156428,0.117333496,5.92636E-06,-6.28E-05,,,,,,,,,,,
6.265334358,1.365853956,2.96834E-05,-0.000473539,,,,,,,,,,,
6.274826433,1.681128145,2.57046E-05,-0.000508281,,,,,,,,,,,
6.274826433,1.681128145,2.57046E-05,-0.000508281,,,,,,,,,,,
6.276460997,1.511315947,2.78431E-05,-0.00049271,,,,,,,,,,,
6.276460997,1.511315947,2.78431E-05,-0.00049271,,,,,,,,,,,
6.27959539,1.787418763,2.39989E-05,-0.000514195,,,,,,,,,,,
6.284364347,1.893709382,2.23305E-05,-0.000517234,,,,,,,,,,,
6.289133304,2,2.08321E-05,-0.000517398,,,,,,,,,,,
6.291135949,0.352000488,1.52057E-05,-0.000175249,,,,,,,,,,,
6.291135949,0.352000488,1.52057E-05,-0.000175249,,,,,,,,,,,
6.3,0,0,0,,,,,,,,,,,
6.306939069,0.600247878,2.21222E-05,-0.000275709,,,,,,,,,,,
6.306939069,0.600247878,2.21222E-05,-0.000275709,,,,,,,,,,,
6.310355494,0.827970739,2.62563E-05,-0.000351767,,,,,,,,,,,
6.332979522,0.234666992,1.00585E-05,-0.000121019,,,,,,,,,,,
6.356283018,1.156870385,2.65077E-05,-0.000434949,,,,,,,,,,,
6.356283018,1.156870385,2.65077E-05,-0.000434949,,,,,,,,,,,
6.364537456,1.040825045,2.58886E-05,-0.000408846,,,,,,,,,,,
6.365959043,0.469333984,1.69693E-05,-0.000224683,,,,,,,,,,,
6.365959043,0.469333984,1.69693E-05,-0.000224683,,,,,,,,,,,
6.365959043,0.469333984,1.69693E-05,-0.000224683,,,,,,,,,,,
6.365959043,0.469333984,1.69693E-05,-0.000224683,,,,,,,,,,,
6.365959043,0.469333984,1.69693E-05,-0.000224683,,,,,,,,,,,
6.365959043,0.469333984,1.69693E-05,-0.000224683,,,,,,,,,,,
6.367409656,1.302332376,2.57185E-05,-0.000462268,,,,,,,,,,,
6.369375469,0.697056844,2.19393E-05,-0.000309438,,,,,,,,,,,
6.372791894,0.924779705,2.4789E-05,-0.000378997,,,,,,,,,,,
6.372791894,0.924779705,2.4789E-05,-0.000378997,,,,,,,,,,,
6.374823094,0.117333496,4.94625E-06,-6.26E-05,,,,,,,,,,,
6.375267168,1.787418763,2.08399E-05,-0.000513222,,,,,,,,,,,
6.375267168,1.787418763,2.08399E-05,-0.000513222,,,,,,,,,,,
6.376901731,1.617606565,2.27622E-05,-0.000502291,,,,,,,,,,,
6.378536294,1.447794368,2.43392E-05,-0.000483915,,,,,,,,,,,
6.378536294,1.447794368,2.43392E-05,-0.000483915,,,,,,,,,,,
6.380036125,1.893709382,1.94528E-05,-0.000516258,,,,,,,,,,,
6.384805082,2,1.82226E-05,-0.000516402,,,,,,,,,,,
6.407802616,0.352000488,1.25972E-05,-0.000174748,,,,,,,,,,,
6.407802616,0.352000488,1.25972E-05,-0.000174748,,,,,,,,,,,
6.416666667,0,0,0,,,,,,,,,,,
6.428395443,0.56614295,1.74105E-05,-0.000262253,,,,,,,,,,,
6.428395443,0.56614295,1.74105E-05,-0.000262253,,,,,,,,,,,
6.431811869,0.793865811,2.1051E-05,-0.000340399,,,,,,,,,,,
6.449646188,0.234666992,8.22966E-06,-0.000120698,,,,,,,,,,,
6.449646188,0.234666992,8.22966E-06,-0.000120698,,,,,,,,,,,
6.469484954,1.238810797,2.16106E-05,-0.000450163,,,,,,,,,,,
6.469484954,1.238810797,2.16106E-05,-0.000450163,,,,,,,,,,,
6.475707902,1.893709382,1.65313E-05,-0.000515494,,,,,,,,,,,
6.475707902,1.893709382,1.65313E-05,-0.000515494,,,,,,,,,,,
6.477342466,1.723897184,1.80615E-05,-0.000509201,,,,,,,,,,,
6.477739392,1.122765457,2.1312E-05,-0.000426704,,,,,,,,,,,
6.478977029,1.554084986,1.95194E-05,-0.000495495,,,,,,,,,,,
6.480476859,2,1.55302E-05,-0.00051562,,,,,,,,,,,
6.480611592,1.384272789,2.06107E-05,-0.000474295,,,,,,,,,,,
6.480611592,1.384272789,2.06107E-05,-0.000474295,,,,,,,,,,,
6.485993831,1.006720117,2.06382E-05,-0.000399557,,,,,,,,,,,
6.490831843,0.662951917,1.70775E-05,-0.000296993,,,,,,,,,,,
6.490831843,0.662951917,1.70775E-05,-0.000296993,,,,,,,,,,,
6.491489761,0.117333496,3.98878E-06,-6.25E-05,,,,,,,,,,,
6.491489761,0.117333496,3.98878E-06,-6.25E-05,,,,,,,,,,,
6.494248269,0.890674777,1.95807E-05,-0.000368661,,,,,,,,,,,
6.494248269,0.890674777,1.95807E-05,-0.000368661,,,,,,,,,,,
6.524469283,0.477000488,1.27543E-05,-0.000227073,,,,,,,,,,,
6.524469283,0.477000488,1.27543E-05,-0.000227073,,,,,,,,,,,
6.533333333,0,0,0,,,,,,,,,,,
6.533333333,0,0,0,,,,,,,,,,,
6.533333333,0,0,0,,,,,,,,,,,
6.553268243,0.759760883,1.60898E-05,-0.000328973,,,,,,,,,,,
6.553268243,0.759760883,1.60898E-05,-0.000328973,,,,,,,,,,,
6.566312855,0.359666992,9.30055E-06,-0.00017761,,,,,,,,,,,
6.576148637,2,1.27667E-05,-0.000515015,,,,,,,,,,,
6.576148637,2,1.27667E-05,-0.000515015,,,,,,,,,,,
6.576148637,2,1.27667E-05,-0.000515015,,,,,,,,,,,
6.576148637,2,1.27667E-05,-0.000515015,,,,,,,,,,,
6.5777832,1.830187802,1.38135E-05,-0.000513398,,,,,,,,,,,
6.5777832,1.830187802,1.38135E-05,-0.000513398,,,,,,,,,,,
6.579417764,1.660375605,1.49895E-05,-0.000504345,,,,,,,,,,,
6.579417764,1.660375605,1.49895E-05,-0.000504345,,,,,,,,,,,
6.581052327,1.490563407,1.60271E-05,-0.000487842,,,,,,,,,,,
6.581052327,1.490563407,1.60271E-05,-0.000487842,,,,,,,,,,,
6.58268689,1.320751209,1.67112E-05,-0.000463803,,,,,,,,,,,
6.58268689,1.320751209,1.67112E-05,-0.000463803,,,,,,,,,,,
6.58268689,1.320751209,1.67112E-05,-0.000463803,,,,,,,,,,,
6.58268689,1.320751209,1.67112E-05,-0.000463803,,,,,,,,,,,
6.58268689,1.320751209,1.67112E-05,-0.000463803,,,,,,,,,,,
6.58268689,1.320751209,1.67112E-05,-0.000463803,,,,,,,,,,,
6.586905682,0.573809454,1.25835E-05,-0.000264421,,,,,,,,,,,
6.590941328,1.204705869,1.65966E-05,-0.000442931,,,,,,,,,,,
6.590941328,1.204705869,1.65966E-05,-0.000442931,,,,,,,,,,,
6.599195767,1.088660529,1.62064E-05,-0.000418422,,,,,,,,,,,
6.599195767,1.088660529,1.62064E-05,-0.000418422,,,,,,,,,,,
6.607450205,0.972615189,1.55302E-05,-0.000390217,,,,,,,,,,,
6.607450205,0.972615189,1.55302E-05,-0.000390217,,,,,,,,,,,
6.608156428,0.242333496,5.97322E-06,-0.00012402,,,,,,,,,,,
6.615704643,0.85656985,1.45667E-05,-0.000358256,,,,,,,,,,,
6.615704643,0.85656985,1.45667E-05,-0.000358256,,,,,,,,,,,
6.615704643,0.85656985,1.45667E-05,-0.000358256,,,,,,,,,,,
6.615704643,0.85656985,1.45667E-05,-0.000358256,,,,,,,,,,,
6.615704643,0.85656985,1.45667E-05,-0.000358256,,,,,,,,,,,
6.649342082,0.670618421,1.17471E-05,-0.000298979,,,,,,,,,,,
6.65,0,0,0,,,,,,,,,,,
6.65,0.125,2.88849E-06,-6.62E-05,,,,,,,,,,,
6.65,0.125,2.88849E-06,-6.62E-05,,,,,,,,,,,
6.682111478,2,9.63827E-06,-0.000514525,,,,,,,,,,,
6.682111478,1.875,1.01947E-05,-0.000514087,,,,,,,,,,,
6.682111478,1.875,1.01947E-05,-0.000514087,,,,,,,,,,,
6.682979522,0.484666992,8.53896E-06,-0.000229667,,,,,,,,,,,
6.682979522,0.484666992,8.53896E-06,-0.000229667,,,,,,,,,,,
6.683746041,1.705187802,1.10251E-05,-0.000507008,,,,,,,,,,,
6.685380604,1.535375605,1.18073E-05,-0.000492475,,,,,,,,,,,
6.687015168,1.365563407,1.23714E-05,-0.000470429,,,,,,,,,,,
6.687015168,1.240563407,1.26183E-05,-0.000449338,,,,,,,,,,,
6.687015168,1.240563407,1.26183E-05,-0.000449338,,,,,,,,,,,
6.687015168,1.365563407,1.23714E-05,-0.000470429,,,,,,,,,,,
6.695269606,1.124518067,1.23073E-05,-0.000425974,,,,,,,,,,,
6.703524044,1.008472727,1.17854E-05,-0.000398937,,,,,,,,,,,
6.711778482,0.892427387,1.10532E-05,-0.00036817,,,,,,,,,,,
6.711778482,0.767427387,1.03607E-05,-0.000330807,,,,,,,,,,,
6.711778482,0.892427387,1.10532E-05,-0.00036817,,,,,,,,,,,
6.711778482,0.767427387,1.03607E-05,-0.000330807,,,,,,,,,,,
6.724823094,0.367333496,5.96193E-06,-0.000180616,,,,,,,,,,,
6.745415922,0.581475958,7.774E-06,-0.00026682,,,,,,,,,,,
6.766666667,0,0,0,,,,,,,,,,,
6.766666667,0.25,3.6326E-06,-0.000127428,,,,,,,,,,,
6.766666667,0.125,1.91625E-06,-6.62E-05,,,,,,,,,,,
6.766666667,0.25,3.6326E-06,-0.000127428,,,,,,,,,,,
6.788074318,2,6.4559E-06,-0.000514193,,,,,,,,,,,
6.788074318,1.75,7.23127E-06,-0.000509297,,,,,,,,,,,
6.788074318,1.875,6.81207E-06,-0.000513773,,,,,,,,,,,
6.788074318,1.75,7.23127E-06,-0.000509297,,,,,,,,,,,
6.789708882,1.580187802,7.742E-06,-0.000496735,,,,,,,,,,,
6.791343445,1.410375605,8.13594E-06,-0.000476677,,,,,,,,,,,
6.791343445,1.160375605,8.41257E-06,-0.000433294,,,,,,,,,,,
6.791343445,1.285375605,8.34467E-06,-0.00045707,,,,,,,,,,,
6.791343445,1.160375605,8.41257E-06,-0.000433294,,,,,,,,,,,
6.791343445,1.410375605,8.13594E-06,-0.000476677,,,,,,,,,,,
6.799597883,1.044330265,7.99786E-06,-0.000407413,,,,,,,,,,,
6.807852322,0.928284925,7.44668E-06,-0.000377823,,,,,,,,,,,
6.807852322,0.678284925,6.44592E-06,-0.000301213,,,,,,,,,,,
6.807852322,0.803284925,7.03856E-06,-0.000341747,,,,,,,,,,,
6.807852322,0.928284925,7.44668E-06,-0.000377823,,,,,,,,,,,
6.807852322,0.678284925,6.44592E-06,-0.000301213,,,,,,,,,,,
6.841489761,0.492333496,4.29868E-06,-0.000232443,,,,,,,,,,,
6.841489761,0.492333496,4.29868E-06,-0.000232443,,,,,,,,,,,
6.883333333,0,0,0,,,,,,,,,,,
6.883333333,0.375,2.56028E-06,-0.000183757,,,,,,,,,,,
6.883333333,0.125,9.55179E-07,-6.61E-05,,,,,,,,,,,
6.883333333,0.25,1.81111E-06,-0.000127341,,,,,,,,,,,
6.883333333,0.375,2.56028E-06,-0.000183757,,,,,,,,,,,
6.894037159,2,3.23718E-06,-0.000514002,,,,,,,,,,,
6.894037159,1.625,3.82645E-06,-0.000500602,,,,,,,,,,,
6.894037159,1.75,3.61634E-06,-0.00050912,,,,,,,,,,,
6.894037159,1.875,3.4107E-06,-0.000513593,,,,,,,,,,,
6.894037159,1.625,3.82645E-06,-0.000500602,,,,,,,,,,,
6.895671723,1.455187802,4.01046E-06,-0.000482527,,,,,,,,,,,
6.895671723,1.080187802,4.17715E-06,-0.000415638,,,,,,,,,,,
6.895671723,1.205187802,4.19508E-06,-0.000442123,,,,,,,,,,,
6.895671723,1.330187802,4.13527E-06,-0.000464398,,,,,,,,,,,
6.895671723,1.080187802,4.17715E-06,-0.000415638,,,,,,,,,,,
6.895671723,1.455187802,4.01046E-06,-0.000482527,,,,,,,,,,,
6.903926161,0.964142462,3.75892E-06,-0.000387214,,,,,,,,,,,
6.903926161,0.589142462,2.94895E-06,-0.000269423,,,,,,,,,,,
6.903926161,0.714142462,3.31183E-06,-0.000313173,,,,,,,,,,,
6.903926161,0.839142462,3.58099E-06,-0.000352409,,,,,,,,,,,
6.903926161,0.964142462,3.75892E-06,-0.000387214,,,,,,,,,,,
6.903926161,0.589142462,2.94895E-06,-0.000269423,,,,,,,,,,,
7,0.5,0,-0.000235386,,,,,,,,,,,
7,1,0,-0.000396343,,,,,,,,,,,
7,0.75,0,-0.000324843,,,,,,,,,,,
7,0.625,0,-0.0002824,,,,,,,,,,,
7,0.875,0,-0.000362796,,,,,,,,,,,
7,1,0,-0.000396343,,,,,,,,,,,
7,1.5,0,-0.00048797,,,,,,,,,,,
7,1.25,0,-0.00045053,,,,,,,,,,,
7,1.125,0,-0.000425563,,,,,,,,,,,
7,1.375,0,-0.000471314,,,,,,,,,,,
7,0,0,0,,,,,,,,,,,
7,0.5,0,-0.000235386,,,,,,,,,,,
7,0.25,0,-0.000127312,,,,,,,,,,,
7,0.125,0,-6.61E-05,,,,,,,,,,,
7,0.375,0,-0.000183717,,,,,,,,,,,
7,0.5,0,-0.000235386,,,,,,,,,,,
7,1.5,0,-0.00048797,,,,,,,,,,,
7,2,0,-0.00051394,,,,,,,,,,,
7,1.75,0,-0.000509063,,,,,,,,,,,
7,1.625,0,-0.000500544,,,,,,,,,,,
7,1.875,0,-0.000513534,,,,,,,,,,,
7,1,0,-0.000396343,,,,,,,,,,,
7,1.5,0,-0.00048797,,,,,,,,,,,
7,0.5,0,-0.000235386,,,,,,,,,,,
